% Design benchmark: large, target75_upshift
% Generated by tools/generate_benchmark_data.py
% For the design model, contentValue is intentionally omitted: the solver designs it.
A = 50;
C = 50;
Iend = 50;
epsilon = 10;
target = 75;
use_target = true;
min_assign_per_agent = 0;
max_assign_per_agent = 48;

initialOpinion = [
  18, 31, 8, 21, 34, 11, 24, 37, 14, 27, 40, 17, 30, 7, 20, 33, 10, 23,
  36, 13, 26, 39, 16, 29, 6, 19, 32, 9, 22, 35, 12, 25, 38, 15, 28, 5,
  18, 31, 8, 21, 34, 11, 24, 37, 14, 27, 40, 17, 30, 7
];
stubbornness = [
  44, 53, 62, 71, 35, 44, 53, 62, 71, 35, 44, 53, 62, 71, 35, 44, 53, 62,
  71, 35, 44, 53, 62, 71, 35, 44, 53, 62, 71, 35, 44, 53, 62, 71, 35, 44,
  53, 62, 71, 35, 44, 53, 62, 71, 35, 44, 53, 62, 71, 35
];
