% Design benchmark: large, three_clusters
% Generated by tools/generate_benchmark_data.py
% For the design model, contentValue is intentionally omitted: the solver designs it.
A = 50;
C = 50;
Iend = 50;
epsilon = 10;
target = 50;
use_target = false;
min_assign_per_agent = 0;
max_assign_per_agent = 48;

initialOpinion = [
  15, 52, 89, 13, 50, 87, 11, 48, 85, 26, 46, 83, 24, 44, 81, 22, 42, 79,
  20, 57, 77, 18, 55, 75, 16, 53, 90, 14, 51, 88, 12, 49, 86, 10, 47, 84,
  25, 45, 82, 23, 43, 80, 21, 58, 78, 19, 56, 76, 17, 54
];
stubbornness = [
  36, 47, 58, 69, 80, 31, 42, 53, 64, 75, 26, 37, 48, 59, 70, 81, 32, 43,
  54, 65, 76, 27, 38, 49, 60, 71, 82, 33, 44, 55, 66, 77, 28, 39, 50, 61,
  72, 83, 34, 45, 56, 67, 78, 29, 40, 51, 62, 73, 84, 35
];
