% Design benchmark: medium, three_clusters
% Generated by tools/generate_benchmark_data.py
% For the design model, contentValue is intentionally omitted: the solver designs it.
A = 30;
C = 30;
Iend = 30;
epsilon = 10;
target = 50;
use_target = false;
min_assign_per_agent = 0;
max_assign_per_agent = 28;

initialOpinion = [
  15, 52, 89, 13, 50, 87, 11, 48, 85, 26, 46, 83, 24, 44, 81, 22, 42, 79,
  20, 57, 77, 18, 55, 75, 16, 53, 90, 14, 51, 88
];
stubbornness = [
  36, 47, 58, 69, 80, 31, 42, 53, 64, 75, 26, 37, 48, 59, 70, 81, 32, 43,
  54, 65, 76, 27, 38, 49, 60, 71, 82, 33, 44, 55
];
