% Consensus free benchmark: large, three_clusters
% Generated by tools/generate_benchmark_data.py
% Convention: C = Iend so content availability grows with the horizon.
A = 75;
C = 75;
Iend = 75;

initialOpinion = [
  15, 52, 89, 13, 50, 87, 11, 48, 85, 26, 46, 83, 24, 44, 81, 22, 42, 79,
  20, 57, 77, 18, 55, 75, 16, 53, 90, 14, 51, 88, 12, 49, 86, 10, 47, 84,
  25, 45, 82, 23, 43, 80, 21, 58, 78, 19, 56, 76, 17, 54, 74, 15, 52, 89,
  13, 50, 87, 11, 48, 85, 26, 46, 83, 24, 44, 81, 22, 42, 79, 20, 57, 77,
  18, 55, 75
];
stubbornness = [
  36, 47, 58, 69, 80, 31, 42, 53, 64, 75, 26, 37, 48, 59, 70, 81, 32, 43,
  54, 65, 76, 27, 38, 49, 60, 71, 82, 33, 44, 55, 66, 77, 28, 39, 50, 61,
  72, 83, 34, 45, 56, 67, 78, 29, 40, 51, 62, 73, 84, 35, 46, 57, 68, 79,
  30, 41, 52, 63, 74, 25, 36, 47, 58, 69, 80, 31, 42, 53, 64, 75, 26, 37,
  48, 59, 70
];
contentValue = [
  0, 15, 30, 42, 48, 50, 52, 58, 70, 85, 100, 8, 13, 17, 22, 27, 31, 36,
  41, 45, 50, 55, 59, 64, 69, 73, 78, 83, 87, 92, 8, 13, 17, 22, 27, 31,
  36, 41, 45, 50, 55, 59, 64, 69, 73, 78, 83, 87, 92, 8, 13, 17, 22, 27,
  31, 36, 41, 45, 50, 55, 59, 64, 69, 73, 78, 83, 87, 92, 8, 13, 17, 22,
  27, 31, 36
];
