% Consensus free benchmark: large, balanced_bimodal
% Generated by tools/generate_benchmark_data.py
% Convention: C = Iend so content availability grows with the horizon.
A = 75;
C = 75;
Iend = 75;

initialOpinion = [
  15, 92, 14, 91, 13, 90, 12, 89, 11, 88, 10, 87, 9, 86, 8, 85, 22, 84,
  21, 83, 20, 82, 19, 81, 18, 80, 17, 79, 16, 78, 15, 92, 14, 91, 13, 90,
  12, 89, 11, 88, 10, 87, 9, 86, 8, 85, 22, 84, 21, 83, 20, 82, 19, 81,
  18, 80, 17, 79, 16, 78, 15, 92, 14, 91, 13, 90, 12, 89, 11, 88, 10, 87,
  9, 86, 8
];
stubbornness = [
  36, 47, 58, 69, 80, 31, 42, 53, 64, 75, 26, 37, 48, 59, 70, 81, 32, 43,
  54, 65, 76, 27, 38, 49, 60, 71, 82, 33, 44, 55, 66, 77, 28, 39, 50, 61,
  72, 83, 34, 45, 56, 67, 78, 29, 40, 51, 62, 73, 84, 35, 46, 57, 68, 79,
  30, 41, 52, 63, 74, 25, 36, 47, 58, 69, 80, 31, 42, 53, 64, 75, 26, 37,
  48, 59, 70
];
contentValue = [
  0, 1, 3, 4, 5, 7, 8, 9, 11, 12, 14, 15, 16, 18, 19, 20, 22, 23,
  24, 26, 27, 28, 30, 31, 32, 34, 35, 36, 38, 39, 41, 42, 43, 45, 46, 47,
  49, 50, 51, 53, 54, 55, 57, 58, 59, 61, 62, 64, 65, 66, 68, 69, 70, 72,
  73, 74, 76, 77, 78, 80, 81, 82, 84, 85, 86, 88, 89, 91, 92, 93, 95, 96,
  97, 99, 100
];
