% Base/plain benchmark: medium, balanced_bimodal
% Generated by tools/generate_benchmark_data.py
% Convention: C = Iend so content availability grows with the horizon.
A = 30;
C = 30;
Iend = 30;

initialOpinion = [
  15, 92, 14, 91, 13, 90, 12, 89, 11, 88, 10, 87, 9, 86, 8, 85, 22, 84,
  21, 83, 20, 82, 19, 81, 18, 80, 17, 79, 16, 78
];
stubbornness = [
  36, 47, 58, 69, 80, 31, 42, 53, 64, 75, 26, 37, 48, 59, 70, 81, 32, 43,
  54, 65, 76, 27, 38, 49, 60, 71, 82, 33, 44, 55
];
contentValue = [
  0, 3, 7, 10, 14, 17, 21, 24, 28, 31, 34, 38, 41, 45, 48, 52, 55, 59,
  62, 66, 69, 72, 76, 79, 83, 86, 90, 93, 97, 100
];
