% Consensus directed benchmark: large, target75_upshift
% Generated by tools/generate_benchmark_data.py
% Convention: C = Iend so content availability grows with the horizon.
A = 75;
C = 75;
Iend = 75;
target = 75;

initialOpinion = [
  18, 31, 8, 21, 34, 11, 24, 37, 14, 27, 40, 17, 30, 7, 20, 33, 10, 23,
  36, 13, 26, 39, 16, 29, 6, 19, 32, 9, 22, 35, 12, 25, 38, 15, 28, 5,
  18, 31, 8, 21, 34, 11, 24, 37, 14, 27, 40, 17, 30, 7, 20, 33, 10, 23,
  36, 13, 26, 39, 16, 29, 6, 19, 32, 9, 22, 35, 12, 25, 38, 15, 28, 5,
  18, 31, 8
];
stubbornness = [
  44, 53, 62, 71, 35, 44, 53, 62, 71, 35, 44, 53, 62, 71, 35, 44, 53, 62,
  71, 35, 44, 53, 62, 71, 35, 44, 53, 62, 71, 35, 44, 53, 62, 71, 35, 44,
  53, 62, 71, 35, 44, 53, 62, 71, 35, 44, 53, 62, 71, 35, 44, 53, 62, 71,
  35, 44, 53, 62, 71, 35, 44, 53, 62, 71, 35, 44, 53, 62, 71, 35, 44, 53,
  62, 71, 35
];
contentValue = [
  0, 1, 3, 4, 5, 7, 8, 9, 11, 12, 14, 15, 16, 18, 19, 20, 22, 23,
  24, 26, 27, 28, 30, 31, 32, 34, 35, 36, 38, 39, 41, 42, 43, 45, 46, 47,
  49, 50, 51, 53, 54, 55, 57, 58, 59, 61, 62, 64, 65, 66, 68, 69, 70, 72,
  73, 74, 76, 77, 78, 80, 81, 82, 84, 85, 86, 88, 89, 91, 92, 93, 95, 96,
  97, 99, 100
];
