% Consensus directed benchmark: medium, target75_upshift
% Generated by tools/generate_benchmark_data.py
% Convention: C = Iend so content availability grows with the horizon.
A = 30;
C = 30;
Iend = 30;
target = 75;

initialOpinion = [
  18, 31, 8, 21, 34, 11, 24, 37, 14, 27, 40, 17, 30, 7, 20, 33, 10, 23,
  36, 13, 26, 39, 16, 29, 6, 19, 32, 9, 22, 35
];
stubbornness = [
  44, 53, 62, 71, 35, 44, 53, 62, 71, 35, 44, 53, 62, 71, 35, 44, 53, 62,
  71, 35, 44, 53, 62, 71, 35, 44, 53, 62, 71, 35
];
contentValue = [
  0, 3, 7, 10, 14, 17, 21, 24, 28, 31, 34, 38, 41, 45, 48, 52, 55, 59,
  62, 66, 69, 72, 76, 79, 83, 86, 90, 93, 97, 100
];
