% Caso mediano-pesado para simple_content_design_epsilon_consensus.mzn
% Reto: disenar hasta 40 contenidos para 100 agentes bimodales.
% Hipotesis: Chuffed deberia encontrar contenidos puente y usar solo una parte del catalogo.

A = 100;
C = 40;
Iend = 100;

epsilon = 8;
target = 50;
use_target = true;

min_assign_per_agent = 0;
max_assign_per_agent = 20;

stubbornness = [57, 23, 60, 26, 63, 29, 66, 32, 69, 35, 72, 38, 75, 41, 78, 44, 81, 47, 84, 50, 87, 53, 90, 56, 22, 59, 25, 62, 28, 65, 31, 68, 34, 71, 37, 74, 40, 77, 43, 80, 46, 83, 49, 86, 52, 89, 55, 21, 58, 24, 61, 27, 64, 30, 67, 33, 70, 36, 73, 39, 76, 42, 79, 45, 82, 48, 85, 51, 88, 54, 20, 57, 23, 60, 26, 63, 29, 66, 32, 69, 35, 72, 38, 75, 41, 78, 44, 81, 47, 84, 50, 87, 53, 90, 56, 22, 59, 25, 62, 28];
initialOpinion = [16, 11, 6, 17, 12, 7, 18, 13, 8, 19, 14, 9, 20, 15, 10, 5, 16, 11, 6, 17, 12, 7, 18, 13, 8, 19, 14, 9, 20, 15, 10, 5, 16, 11, 6, 17, 12, 7, 18, 13, 8, 19, 14, 9, 20, 15, 10, 5, 16, 11, 87, 84, 81, 94, 91, 88, 85, 82, 95, 92, 89, 86, 83, 80, 93, 90, 87, 84, 81, 94, 91, 88, 85, 82, 95, 92, 89, 86, 83, 80, 93, 90, 87, 84, 81, 94, 91, 88, 85, 82, 95, 92, 89, 86, 83, 80, 93, 90, 87, 84];