% ================================================================
% Datos para simple_content_design_epsilon_consensus.mzn
% Reto: target medio-alto con muchos agentes partiendo por debajo.
% Hipotesis: el modelo deberia crear contenidos altos para subir rapido, pero evitar sobrepasar la banda final.
% Peso: 24,000 asignaciones posibles y 60 contenidos variables.
% ================================================================

A = 200;
C = 60;
Iend = 120;
epsilon = 5;
target = 65;
use_target = true;
min_assign_per_agent = 0;
max_assign_per_agent = 20;

stubbornness = [54, 83, 46, 75, 38, 67, 30, 59, 88, 51, 80, 43, 72, 35, 64, 27, 56, 85, 48, 77, 40, 69, 32, 61, 90, 53, 82, 45, 74, 37, 66, 29, 58, 87, 50, 79, 42, 71, 34, 63, 26, 55, 84, 47, 76, 39, 68, 31, 60, 89, 52, 81, 44, 73, 36, 65, 28, 57, 86, 49, 78, 41, 70, 33, 62, 25, 54, 83, 46, 75, 38, 67, 30, 59, 88, 51, 80, 43, 72, 35, 64, 27, 56, 85, 48, 77, 40, 69, 32, 61, 90, 53, 82, 45, 74, 37, 66, 29, 58, 87, 50, 79, 42, 71, 34, 63, 26, 55, 84, 47, 76, 39, 68, 31, 60, 89, 52, 81, 44, 73, 36, 65, 28, 57, 86, 49, 78, 41, 70, 33, 62, 25, 54, 83, 46, 75, 38, 67, 30, 59, 88, 51, 80, 43, 72, 35, 64, 27, 56, 85, 48, 77, 40, 69, 32, 61, 90, 53, 82, 45, 74, 37, 66, 29, 58, 87, 50, 79, 42, 71, 34, 63, 26, 55, 84, 47, 76, 39, 68, 31, 60, 89, 52, 81, 44, 73, 36, 65, 28, 57, 86, 49, 78, 41, 70, 33, 62, 25, 54, 83];
initialOpinion = [17, 24, 31, 38, 10, 17, 24, 31, 38, 10, 17, 24, 31, 38, 10, 17, 24, 31, 38, 10, 17, 24, 31, 38, 10, 17, 24, 31, 38, 10, 17, 24, 31, 38, 10, 17, 24, 31, 38, 10, 17, 24, 31, 38, 10, 17, 24, 31, 38, 10, 17, 24, 31, 38, 10, 17, 24, 31, 38, 10, 17, 24, 31, 38, 10, 17, 24, 31, 38, 10, 17, 24, 31, 38, 10, 17, 24, 31, 38, 10, 17, 24, 31, 38, 10, 17, 24, 31, 38, 10, 17, 24, 31, 38, 10, 17, 24, 31, 38, 10, 17, 24, 31, 38, 10, 17, 24, 31, 38, 10, 17, 24, 31, 38, 10, 17, 24, 31, 38, 10, 17, 24, 31, 38, 10, 17, 24, 31, 38, 10, 17, 24, 31, 38, 10, 17, 24, 31, 38, 10, 17, 24, 31, 38, 10, 17, 24, 31, 38, 10, 71, 82, 73, 84, 75, 86, 77, 88, 79, 70, 81, 72, 83, 74, 85, 76, 87, 78, 89, 80, 71, 82, 73, 84, 75, 86, 77, 88, 79, 70, 81, 72, 83, 74, 85, 76, 87, 78, 89, 80, 71, 82, 73, 84, 75, 86, 77, 88, 79, 70];