% ================================================================
% Datos para simple_content_design_epsilon_consensus.mzn
% Reto: escala masiva para medir poda por ordenamiento, empaquetado de contenidos y monotonicidad.
% Hipotesis: el modelo deberia usar pocos contenidos representativos aunque tenga 100 disponibles.
% Peso: 50,000 asignaciones posibles, 500 agentes y 100 contenidos variables.
% ================================================================

A = 500;
C = 100;
Iend = 100;
epsilon = 10;
target = 50;
use_target = false;
min_assign_per_agent = 0;
max_assign_per_agent = 25;

stubbornness = [51, 82, 42, 73, 33, 64, 24, 55, 86, 46, 77, 37, 68, 28, 59, 90, 50, 81, 41, 72, 32, 63, 23, 54, 85, 45, 76, 36, 67, 27, 58, 89, 49, 80, 40, 71, 31, 62, 22, 53, 84, 44, 75, 35, 66, 26, 57, 88, 48, 79, 39, 70, 30, 61, 21, 52, 83, 43, 74, 34, 65, 25, 56, 87, 47, 78, 38, 69, 29, 60, 20, 51, 82, 42, 73, 33, 64, 24, 55, 86, 46, 77, 37, 68, 28, 59, 90, 50, 81, 41, 72, 32, 63, 23, 54, 85, 45, 76, 36, 67, 27, 58, 89, 49, 80, 40, 71, 31, 62, 22, 53, 84, 44, 75, 35, 66, 26, 57, 88, 48, 79, 39, 70, 30, 61, 21, 52, 83, 43, 74, 34, 65, 25, 56, 87, 47, 78, 38, 69, 29, 60, 20, 51, 82, 42, 73, 33, 64, 24, 55, 86, 46, 77, 37, 68, 28, 59, 90, 50, 81, 41, 72, 32, 63, 23, 54, 85, 45, 76, 36, 67, 27, 58, 89, 49, 80, 40, 71, 31, 62, 22, 53, 84, 44, 75, 35, 66, 26, 57, 88, 48, 79, 39, 70, 30, 61, 21, 52, 83, 43, 74, 34, 65, 25, 56, 87, 47, 78, 38, 69, 29, 60, 20, 51, 82, 42, 73, 33, 64, 24, 55, 86, 46, 77, 37, 68, 28, 59, 90, 50, 81, 41, 72, 32, 63, 23, 54, 85, 45, 76, 36, 67, 27, 58, 89, 49, 80, 40, 71, 31, 62, 22, 53, 84, 44, 75, 35, 66, 26, 57, 88, 48, 79, 39, 70, 30, 61, 21, 52, 83, 43, 74, 34, 65, 25, 56, 87, 47, 78, 38, 69, 29, 60, 20, 51, 82, 42, 73, 33, 64, 24, 55, 86, 46, 77, 37, 68, 28, 59, 90, 50, 81, 41, 72, 32, 63, 23, 54, 85, 45, 76, 36, 67, 27, 58, 89, 49, 80, 40, 71, 31, 62, 22, 53, 84, 44, 75, 35, 66, 26, 57, 88, 48, 79, 39, 70, 30, 61, 21, 52, 83, 43, 74, 34, 65, 25, 56, 87, 47, 78, 38, 69, 29, 60, 20, 51, 82, 42, 73, 33, 64, 24, 55, 86, 46, 77, 37, 68, 28, 59, 90, 50, 81, 41, 72, 32, 63, 23, 54, 85, 45, 76, 36, 67, 27, 58, 89, 49, 80, 40, 71, 31, 62, 22, 53, 84, 44, 75, 35, 66, 26, 57, 88, 48, 79, 39, 70, 30, 61, 21, 52, 83, 43, 74, 34, 65, 25, 56, 87, 47, 78, 38, 69, 29, 60, 20, 51, 82, 42, 73, 33, 64, 24, 55, 86, 46, 77, 37, 68, 28, 59, 90, 50, 81, 41, 72, 32, 63, 23, 54, 85, 45, 76, 36, 67, 27, 58, 89, 49, 80, 40, 71, 31, 62, 22, 53, 84, 44, 75, 35, 66, 26, 57, 88, 48, 79, 39, 70, 30, 61, 21, 52, 83, 43, 74, 34, 65, 25, 56, 87, 47, 78, 38, 69, 29, 60, 20, 51, 82, 42];
initialOpinion = [13, 18, 23, 10, 15, 20, 25, 12, 17, 22, 9, 14, 19, 24, 11, 16, 21, 8, 13, 18, 23, 10, 15, 20, 25, 12, 17, 22, 9, 14, 19, 24, 11, 16, 21, 8, 13, 18, 23, 10, 15, 20, 25, 12, 17, 22, 9, 14, 19, 24, 11, 16, 21, 8, 13, 18, 23, 10, 15, 20, 25, 12, 17, 22, 9, 14, 19, 24, 11, 16, 21, 8, 13, 18, 23, 10, 15, 20, 25, 12, 17, 22, 9, 14, 19, 24, 11, 16, 21, 8, 13, 18, 23, 10, 15, 20, 25, 12, 17, 22, 9, 14, 19, 24, 11, 16, 21, 8, 13, 18, 23, 10, 15, 20, 25, 12, 17, 22, 9, 14, 19, 24, 11, 16, 21, 8, 13, 18, 23, 10, 15, 20, 25, 12, 17, 22, 9, 14, 19, 24, 11, 16, 21, 8, 13, 18, 23, 10, 15, 20, 25, 12, 17, 22, 9, 14, 19, 24, 11, 16, 21, 8, 13, 18, 23, 10, 15, 20, 25, 12, 51, 58, 47, 54, 43, 50, 57, 46, 53, 42, 49, 56, 45, 52, 59, 48, 55, 44, 51, 58, 47, 54, 43, 50, 57, 46, 53, 42, 49, 56, 45, 52, 59, 48, 55, 44, 51, 58, 47, 54, 43, 50, 57, 46, 53, 42, 49, 56, 45, 52, 59, 48, 55, 44, 51, 58, 47, 54, 43, 50, 57, 46, 53, 42, 49, 56, 45, 52, 59, 48, 55, 44, 51, 58, 47, 54, 43, 50, 57, 46, 53, 42, 49, 56, 45, 52, 59, 48, 55, 44, 51, 58, 47, 54, 43, 50, 57, 46, 53, 42, 49, 56, 45, 52, 59, 48, 55, 44, 51, 58, 47, 54, 43, 50, 57, 46, 53, 42, 49, 56, 45, 52, 59, 48, 55, 44, 51, 58, 47, 54, 43, 50, 57, 46, 53, 42, 49, 56, 45, 52, 59, 48, 55, 44, 51, 58, 47, 54, 43, 50, 57, 46, 53, 42, 49, 56, 45, 52, 59, 48, 55, 44, 51, 58, 47, 54, 43, 50, 57, 46, 83, 76, 87, 80, 91, 84, 77, 88, 81, 92, 85, 78, 89, 82, 93, 86, 79, 90, 83, 76, 87, 80, 91, 84, 77, 88, 81, 92, 85, 78, 89, 82, 93, 86, 79, 90, 83, 76, 87, 80, 91, 84, 77, 88, 81, 92, 85, 78, 89, 82, 93, 86, 79, 90, 83, 76, 87, 80, 91, 84, 77, 88, 81, 92, 85, 78, 89, 82, 93, 86, 79, 90, 83, 76, 87, 80, 91, 84, 77, 88, 81, 92, 85, 78, 89, 82, 93, 86, 79, 90, 83, 76, 87, 80, 91, 84, 77, 88, 81, 92, 85, 78, 89, 82, 93, 86, 79, 90, 83, 76, 87, 80, 91, 84, 77, 88, 81, 92, 85, 78, 89, 82, 93, 86, 79, 90, 83, 76, 87, 80, 91, 84, 77, 88, 81, 92, 85, 78, 89, 82, 93, 86, 79, 90, 83, 76, 87, 80, 91, 84, 77, 88, 81, 92, 85, 78, 89, 82, 93, 86];