% ================================================================
% Datos para simple_content_design_epsilon_consensus.mzn
% Reto: agentes muy tercos; cada contenido cambia poco la opinion.
% Hipotesis: si es factible, requerira mas turnos y mas contenidos distintos que los casos de terquedad media.
% Peso: 30,000 asignaciones posibles y 80 contenidos variables.
% ================================================================

A = 200;
C = 80;
Iend = 150;
epsilon = 8;
target = 50;
use_target = true;
min_assign_per_agent = 0;
max_assign_per_agent = 35;

stubbornness = [91, 83, 96, 88, 80, 93, 85, 98, 90, 82, 95, 87, 79, 92, 84, 97, 89, 81, 94, 86, 78, 91, 83, 96, 88, 80, 93, 85, 98, 90, 82, 95, 87, 79, 92, 84, 97, 89, 81, 94, 86, 78, 91, 83, 96, 88, 80, 93, 85, 98, 90, 82, 95, 87, 79, 92, 84, 97, 89, 81, 94, 86, 78, 91, 83, 96, 88, 80, 93, 85, 98, 90, 82, 95, 87, 79, 92, 84, 97, 89, 81, 94, 86, 78, 91, 83, 96, 88, 80, 93, 85, 98, 90, 82, 95, 87, 79, 92, 84, 97, 89, 81, 94, 86, 78, 91, 83, 96, 88, 80, 93, 85, 98, 90, 82, 95, 87, 79, 92, 84, 97, 89, 81, 94, 86, 78, 91, 83, 96, 88, 80, 93, 85, 98, 90, 82, 95, 87, 79, 92, 84, 97, 89, 81, 94, 86, 78, 91, 83, 96, 88, 80, 93, 85, 98, 90, 82, 95, 87, 79, 92, 84, 97, 89, 81, 94, 86, 78, 91, 83, 96, 88, 80, 93, 85, 98, 90, 82, 95, 87, 79, 92, 84, 97, 89, 81, 94, 86, 78, 91, 83, 96, 88, 80, 93, 85, 98, 90, 82, 95];
initialOpinion = [85, 11, 95, 17, 87, 5, 97, 11, 89, 17, 81, 5, 91, 11, 83, 17, 93, 5, 85, 11, 95, 17, 87, 5, 97, 11, 89, 17, 81, 5, 91, 11, 83, 17, 93, 5, 85, 11, 95, 17, 87, 5, 97, 11, 89, 17, 81, 5, 91, 11, 83, 17, 93, 5, 85, 11, 95, 17, 87, 5, 97, 11, 89, 17, 81, 5, 91, 11, 83, 17, 93, 5, 85, 11, 95, 17, 87, 5, 97, 11, 89, 17, 81, 5, 91, 11, 83, 17, 93, 5, 85, 11, 95, 17, 87, 5, 97, 11, 89, 17, 81, 5, 91, 11, 83, 17, 93, 5, 85, 11, 95, 17, 87, 5, 97, 11, 89, 17, 81, 5, 91, 11, 83, 17, 93, 5, 85, 11, 95, 17, 87, 5, 97, 11, 89, 17, 81, 5, 91, 11, 83, 17, 93, 5, 85, 11, 95, 17, 87, 5, 97, 11, 89, 17, 81, 5, 91, 11, 83, 17, 93, 5, 85, 11, 95, 17, 87, 5, 97, 11, 89, 17, 81, 5, 91, 11, 83, 17, 93, 5, 85, 11, 95, 17, 87, 5, 97, 11, 89, 17, 81, 5, 91, 11, 83, 17, 93, 5, 85, 11];