% ================================================================
% Datos para simple_content_design_epsilon_consensus.mzn
% Reto: consenso no dirigido con poblacion bimodal y catalogo de 40 contenidos variables.
% Hipotesis: deberia encontrar un punto de convergencia intermedio y usar solo una fraccion del catalogo.
% Peso: 10,000 asignaciones posibles mas 40 variables de contenido.
% ================================================================

A = 100;
C = 40;
Iend = 100;
epsilon = 5;
target = 50;
use_target = false;
min_assign_per_agent = 0;
max_assign_per_agent = 18;

stubbornness = [53, 76, 38, 61, 84, 46, 69, 31, 54, 77, 39, 62, 85, 47, 70, 32, 55, 78, 40, 63, 86, 48, 71, 33, 56, 79, 41, 64, 87, 49, 72, 34, 57, 80, 42, 65, 88, 50, 73, 35, 58, 81, 43, 66, 89, 51, 74, 36, 59, 82, 44, 67, 90, 52, 75, 37, 60, 83, 45, 68, 30, 53, 76, 38, 61, 84, 46, 69, 31, 54, 77, 39, 62, 85, 47, 70, 32, 55, 78, 40, 63, 86, 48, 71, 33, 56, 79, 41, 64, 87, 49, 72, 34, 57, 80, 42, 65, 88, 50, 73];
initialOpinion = [14, 21, 8, 15, 22, 9, 16, 23, 10, 17, 24, 11, 18, 25, 12, 19, 26, 13, 20, 7, 14, 21, 8, 15, 22, 9, 16, 23, 10, 17, 24, 11, 18, 25, 12, 19, 26, 13, 20, 7, 14, 21, 8, 15, 22, 9, 16, 23, 10, 17, 74, 85, 76, 87, 78, 89, 80, 91, 82, 73, 84, 75, 86, 77, 88, 79, 90, 81, 92, 83, 74, 85, 76, 87, 78, 89, 80, 91, 82, 73, 84, 75, 86, 77, 88, 79, 90, 81, 92, 83, 74, 85, 76, 87, 78, 89, 80, 91, 82, 73];