A = 200;
C = 100;
Iend = 150;
epsilon = 6;
target = 50;

stubbornness = [95, 94, 93, 92, 91, 90, 89, 88, 87, 86, 85, 84, 83, 82, 81, 80, 79, 78, 77, 76, 75, 74, 73, 72, 95, 94, 93, 92, 91, 90, 89, 88, 87, 86, 85, 84, 83, 82, 81, 80, 79, 78, 77, 76, 75, 74, 73, 72, 95, 94, 93, 92, 91, 90, 89, 88, 87, 86, 85, 84, 83, 82, 81, 80, 79, 78, 77, 76, 75, 74, 73, 72, 95, 94, 93, 92, 91, 90, 89, 88, 87, 86, 85, 84, 83, 82, 81, 80, 79, 78, 77, 76, 75, 74, 73, 72, 95, 94, 93, 92, 91, 90, 89, 88, 87, 86, 85, 84, 83, 82, 81, 80, 79, 78, 77, 76, 75, 74, 73, 72, 95, 94, 93, 92, 91, 90, 89, 88, 87, 86, 85, 84, 83, 82, 81, 80, 79, 78, 77, 76, 75, 74, 73, 72, 95, 94, 93, 92, 91, 90, 89, 88, 87, 86, 85, 84, 83, 82, 81, 80, 79, 78, 77, 76, 75, 74, 73, 72, 95, 94, 93, 92, 91, 90, 89, 88, 87, 86, 85, 84, 83, 82, 81, 80, 79, 78, 77, 76, 75, 74, 73, 72, 95, 94, 93, 92, 91, 90, 89, 88];
initialOpinion = [16, 11, 6, 17, 12, 7, 18, 13, 8, 19, 14, 9, 20, 15, 10, 5, 16, 11, 6, 17, 12, 7, 18, 13, 8, 19, 14, 9, 20, 15, 10, 5, 16, 11, 6, 17, 12, 7, 18, 13, 8, 19, 14, 9, 20, 15, 10, 5, 16, 11, 6, 17, 12, 7, 18, 13, 8, 19, 14, 9, 20, 15, 10, 5, 16, 11, 6, 17, 12, 7, 18, 13, 8, 19, 14, 9, 20, 15, 10, 5, 16, 11, 6, 17, 12, 7, 18, 13, 8, 19, 14, 9, 20, 15, 10, 5, 16, 11, 6, 17, 81, 94, 91, 88, 85, 82, 95, 92, 89, 86, 83, 80, 93, 90, 87, 84, 81, 94, 91, 88, 85, 82, 95, 92, 89, 86, 83, 80, 93, 90, 87, 84, 81, 94, 91, 88, 85, 82, 95, 92, 89, 86, 83, 80, 93, 90, 87, 84, 81, 94, 91, 88, 85, 82, 95, 92, 89, 86, 83, 80, 93, 90, 87, 84, 81, 94, 91, 88, 85, 82, 95, 92, 89, 86, 83, 80, 93, 90, 87, 84, 81, 94, 91, 88, 85, 82, 95, 92, 89, 86, 83, 80, 93, 90, 87, 84, 81, 94, 91, 88];
contentValue = [37, 54, 71, 27, 44, 61, 78, 34, 51, 68, 24, 41, 58, 75, 31, 48, 65, 21, 38, 55, 72, 28, 45, 62, 79, 35, 52, 69, 25, 42, 59, 76, 32, 49, 66, 22, 39, 56, 73, 29, 46, 63, 80, 36, 53, 70, 26, 43, 60, 77, 33, 50, 67, 23, 40, 57, 74, 30, 47, 64, 20, 37, 54, 71, 27, 44, 61, 78, 34, 51, 68, 24, 41, 58, 75, 31, 48, 65, 21, 38, 55, 72, 28, 45, 62, 79, 35, 52, 69, 25, 42, 59, 76, 32, 49, 66, 22, 39, 56, 73];

