A = 200;
C = 100;
Iend = 120;
epsilon = 7;
target = 75;

stubbornness = [57, 23, 60, 26, 63, 29, 66, 32, 69, 35, 72, 38, 75, 41, 78, 44, 81, 47, 84, 50, 87, 53, 90, 56, 22, 59, 25, 62, 28, 65, 31, 68, 34, 71, 37, 74, 40, 77, 43, 80, 46, 83, 49, 86, 52, 89, 55, 21, 58, 24, 61, 27, 64, 30, 67, 33, 70, 36, 73, 39, 76, 42, 79, 45, 82, 48, 85, 51, 88, 54, 20, 57, 23, 60, 26, 63, 29, 66, 32, 69, 35, 72, 38, 75, 41, 78, 44, 81, 47, 84, 50, 87, 53, 90, 56, 22, 59, 25, 62, 28, 65, 31, 68, 34, 71, 37, 74, 40, 77, 43, 80, 46, 83, 49, 86, 52, 89, 55, 21, 58, 24, 61, 27, 64, 30, 67, 33, 70, 36, 73, 39, 76, 42, 79, 45, 82, 48, 85, 51, 88, 54, 20, 57, 23, 60, 26, 63, 29, 66, 32, 69, 35, 72, 38, 75, 41, 78, 44, 81, 47, 84, 50, 87, 53, 90, 56, 22, 59, 25, 62, 28, 65, 31, 68, 34, 71, 37, 74, 40, 77, 43, 80, 46, 83, 49, 86, 52, 89, 55, 21, 58, 24, 61, 27, 64, 30, 67, 33, 70, 36];
initialOpinion = [0, 1, 1, 2, 2, 3, 3, 4, 4, 5, 5, 6, 6, 7, 7, 8, 8, 9, 9, 10, 10, 11, 11, 12, 12, 13, 13, 14, 14, 15, 15, 16, 16, 17, 17, 18, 18, 19, 19, 20, 20, 21, 21, 22, 22, 23, 23, 24, 24, 25, 25, 26, 26, 27, 27, 28, 28, 29, 29, 30, 30, 31, 31, 32, 32, 33, 33, 34, 34, 35, 35, 36, 36, 37, 37, 38, 38, 39, 39, 40, 40, 41, 41, 42, 42, 43, 43, 44, 44, 45, 45, 46, 46, 47, 47, 48, 48, 49, 49, 50, 50, 51, 51, 52, 52, 53, 53, 54, 54, 55, 55, 56, 56, 57, 57, 58, 58, 59, 59, 60, 60, 61, 61, 62, 62, 63, 63, 64, 64, 65, 65, 66, 66, 67, 67, 68, 68, 69, 69, 70, 70, 71, 71, 72, 72, 73, 73, 74, 74, 75, 75, 76, 76, 77, 77, 78, 78, 79, 79, 80, 80, 81, 81, 82, 82, 83, 83, 84, 84, 85, 85, 86, 86, 87, 87, 88, 88, 89, 89, 90, 90, 91, 91, 92, 92, 93, 93, 94, 94, 95, 95, 96, 96, 97, 97, 98, 98, 99, 99, 100];
contentValue = [67, 84, 50, 67, 84, 50, 67, 84, 50, 67, 84, 50, 67, 84, 50, 67, 84, 50, 67, 84, 50, 67, 84, 50, 67, 84, 50, 67, 84, 50, 67, 84, 50, 67, 84, 50, 67, 84, 50, 67, 84, 50, 67, 84, 50, 67, 84, 50, 67, 84, 50, 67, 84, 50, 67, 84, 50, 67, 84, 50, 67, 84, 50, 67, 84, 50, 67, 84, 50, 67, 84, 50, 67, 84, 50, 67, 84, 50, 67, 84, 50, 67, 84, 50, 67, 84, 50, 67, 84, 50, 67, 84, 50, 67, 84, 50, 67, 84, 50, 67];
min_zero_per_agent = 4;
min_assign_per_agent = 1;

