A = 100;
C = 100;
Iend = 200;
epsilon = 1;
target = 50;

stubbornness = [64, 18, 64, 18, 95, 18, 64, 18, 64, 95, 64, 18, 64, 18, 95, 18, 64, 18, 64, 95, 64, 18, 64, 18, 95, 18, 64, 18, 64, 95, 64, 18, 64, 18, 95, 18, 64, 18, 64, 95, 64, 18, 64, 18, 95, 18, 64, 18, 64, 95, 64, 18, 64, 18, 95, 18, 64, 18, 64, 95, 64, 18, 64, 18, 95, 18, 64, 18, 64, 95, 64, 18, 64, 18, 95, 18, 64, 18, 64, 95, 64, 18, 64, 18, 95, 18, 64, 18, 64, 95, 64, 18, 64, 18, 95, 18, 64, 18, 64, 95];
initialOpinion = [16, 11, 6, 17, 12, 7, 18, 13, 8, 19, 14, 9, 20, 15, 10, 5, 16, 11, 6, 17, 12, 7, 18, 13, 8, 19, 14, 9, 20, 15, 10, 5, 16, 11, 6, 17, 12, 7, 18, 13, 8, 19, 14, 9, 20, 15, 10, 5, 16, 11, 87, 84, 81, 94, 91, 88, 85, 82, 95, 92, 89, 86, 83, 80, 93, 90, 87, 84, 81, 94, 91, 88, 85, 82, 95, 92, 89, 86, 83, 80, 93, 90, 87, 84, 81, 94, 91, 88, 85, 82, 95, 92, 89, 86, 83, 80, 93, 90, 87, 84];
contentValue = [57, 53, 49, 45, 41, 58, 54, 50, 46, 42, 59, 55, 51, 47, 43, 60, 56, 52, 48, 44, 40, 57, 53, 49, 45, 41, 58, 54, 50, 46, 42, 59, 55, 51, 47, 43, 60, 56, 52, 48, 44, 40, 57, 53, 49, 45, 41, 58, 54, 50, 46, 42, 59, 55, 51, 47, 43, 60, 56, 52, 48, 44, 40, 57, 53, 49, 45, 41, 58, 54, 50, 46, 42, 59, 55, 51, 47, 43, 60, 56, 52, 48, 44, 40, 57, 53, 49, 45, 41, 58, 54, 50, 46, 42, 59, 55, 51, 47, 43, 60];
min_zero_per_agent = 4;
min_assign_per_agent = 1;

