A = 100;
C = 100;
Iend = 100;
epsilon = 5;
target = 50;

stubbornness = [57, 23, 60, 26, 63, 29, 66, 32, 69, 35, 72, 38, 75, 41, 78, 44, 81, 47, 84, 50, 87, 53, 90, 56, 22, 59, 25, 62, 28, 65, 31, 68, 34, 71, 37, 74, 40, 77, 43, 80, 46, 83, 49, 86, 52, 89, 55, 21, 58, 24, 61, 27, 64, 30, 67, 33, 70, 36, 73, 39, 76, 42, 79, 45, 82, 48, 85, 51, 88, 54, 20, 57, 23, 60, 26, 63, 29, 66, 32, 69, 35, 72, 38, 75, 41, 78, 44, 81, 47, 84, 50, 87, 53, 90, 56, 22, 59, 25, 62, 28];
initialOpinion = [16, 11, 6, 17, 12, 7, 18, 13, 8, 19, 14, 9, 20, 15, 10, 5, 16, 11, 6, 17, 12, 7, 18, 13, 8, 19, 14, 9, 20, 15, 10, 5, 16, 11, 6, 17, 12, 7, 18, 13, 8, 19, 14, 9, 20, 15, 10, 5, 16, 11, 87, 84, 81, 94, 91, 88, 85, 82, 95, 92, 89, 86, 83, 80, 93, 90, 87, 84, 81, 94, 91, 88, 85, 82, 95, 92, 89, 86, 83, 80, 93, 90, 87, 84, 81, 94, 91, 88, 85, 82, 95, 92, 89, 86, 83, 80, 93, 90, 87, 84];
contentValue = [32, 49, 66, 83, 29, 46, 63, 80, 26, 43, 60, 77, 23, 40, 57, 74, 20, 37, 54, 71, 17, 34, 51, 68, 85, 31, 48, 65, 82, 28, 45, 62, 79, 25, 42, 59, 76, 22, 39, 56, 73, 19, 36, 53, 70, 16, 33, 50, 67, 84, 30, 47, 64, 81, 27, 44, 61, 78, 24, 41, 58, 75, 21, 38, 55, 72, 18, 35, 52, 69, 15, 32, 49, 66, 83, 29, 46, 63, 80, 26, 43, 60, 77, 23, 40, 57, 74, 20, 37, 54, 71, 17, 34, 51, 68, 85, 31, 48, 65, 82];

