A = 500;
C = 100;
Iend = 100;
epsilon = 10;
target = 50;

stubbornness = [57, 23, 60, 26, 63, 29, 66, 32, 69, 35, 72, 38, 75, 41, 78, 44, 81, 47, 84, 50, 87, 53, 90, 56, 22, 59, 25, 62, 28, 65, 31, 68, 34, 71, 37, 74, 40, 77, 43, 80, 46, 83, 49, 86, 52, 89, 55, 21, 58, 24, 61, 27, 64, 30, 67, 33, 70, 36, 73, 39, 76, 42, 79, 45, 82, 48, 85, 51, 88, 54, 20, 57, 23, 60, 26, 63, 29, 66, 32, 69, 35, 72, 38, 75, 41, 78, 44, 81, 47, 84, 50, 87, 53, 90, 56, 22, 59, 25, 62, 28, 65, 31, 68, 34, 71, 37, 74, 40, 77, 43, 80, 46, 83, 49, 86, 52, 89, 55, 21, 58, 24, 61, 27, 64, 30, 67, 33, 70, 36, 73, 39, 76, 42, 79, 45, 82, 48, 85, 51, 88, 54, 20, 57, 23, 60, 26, 63, 29, 66, 32, 69, 35, 72, 38, 75, 41, 78, 44, 81, 47, 84, 50, 87, 53, 90, 56, 22, 59, 25, 62, 28, 65, 31, 68, 34, 71, 37, 74, 40, 77, 43, 80, 46, 83, 49, 86, 52, 89, 55, 21, 58, 24, 61, 27, 64, 30, 67, 33, 70, 36, 73, 39, 76, 42, 79, 45, 82, 48, 85, 51, 88, 54, 20, 57, 23, 60, 26, 63, 29, 66, 32, 69, 35, 72, 38, 75, 41, 78, 44, 81, 47, 84, 50, 87, 53, 90, 56, 22, 59, 25, 62, 28, 65, 31, 68, 34, 71, 37, 74, 40, 77, 43, 80, 46, 83, 49, 86, 52, 89, 55, 21, 58, 24, 61, 27, 64, 30, 67, 33, 70, 36, 73, 39, 76, 42, 79, 45, 82, 48, 85, 51, 88, 54, 20, 57, 23, 60, 26, 63, 29, 66, 32, 69, 35, 72, 38, 75, 41, 78, 44, 81, 47, 84, 50, 87, 53, 90, 56, 22, 59, 25, 62, 28, 65, 31, 68, 34, 71, 37, 74, 40, 77, 43, 80, 46, 83, 49, 86, 52, 89, 55, 21, 58, 24, 61, 27, 64, 30, 67, 33, 70, 36, 73, 39, 76, 42, 79, 45, 82, 48, 85, 51, 88, 54, 20, 57, 23, 60, 26, 63, 29, 66, 32, 69, 35, 72, 38, 75, 41, 78, 44, 81, 47, 84, 50, 87, 53, 90, 56, 22, 59, 25, 62, 28, 65, 31, 68, 34, 71, 37, 74, 40, 77, 43, 80, 46, 83, 49, 86, 52, 89, 55, 21, 58, 24, 61, 27, 64, 30, 67, 33, 70, 36, 73, 39, 76, 42, 79, 45, 82, 48, 85, 51, 88, 54, 20, 57, 23, 60, 26, 63, 29, 66, 32, 69, 35, 72, 38, 75, 41, 78, 44, 81, 47, 84, 50, 87, 53, 90, 56, 22, 59, 25, 62, 28, 65, 31, 68, 34, 71, 37, 74, 40, 77, 43, 80, 46, 83, 49, 86, 52, 89, 55, 21, 58, 24, 61, 27, 64, 30, 67, 33, 70, 36, 73, 39, 76, 42, 79, 45, 82, 48, 85, 51, 88, 54, 20, 57, 23, 60];
initialOpinion = [52, 88, 11, 51, 84, 14, 50, 93, 17, 49, 89, 8, 48, 85, 11, 47, 94, 14, 46, 90, 17, 45, 86, 8, 55, 82, 11, 54, 91, 14, 53, 87, 17, 52, 83, 8, 51, 92, 11, 50, 88, 14, 49, 84, 17, 48, 93, 8, 47, 89, 11, 46, 85, 14, 45, 94, 17, 55, 90, 8, 54, 86, 11, 53, 82, 14, 52, 91, 17, 51, 87, 8, 50, 83, 11, 49, 92, 14, 48, 88, 17, 47, 84, 8, 46, 93, 11, 45, 89, 14, 55, 85, 17, 54, 94, 8, 53, 90, 11, 52, 86, 14, 51, 82, 17, 50, 91, 8, 49, 87, 11, 48, 83, 14, 47, 92, 17, 46, 88, 8, 45, 84, 11, 55, 93, 14, 54, 89, 17, 53, 85, 8, 52, 94, 11, 51, 90, 14, 50, 86, 17, 49, 82, 8, 48, 91, 11, 47, 87, 14, 46, 83, 17, 45, 92, 8, 55, 88, 11, 54, 84, 14, 53, 93, 17, 52, 89, 8, 51, 85, 11, 50, 94, 14, 49, 90, 17, 48, 86, 8, 47, 82, 11, 46, 91, 14, 45, 87, 17, 55, 83, 8, 54, 92, 11, 53, 88, 14, 52, 84, 17, 51, 93, 8, 50, 89, 11, 49, 85, 14, 48, 94, 17, 47, 90, 8, 46, 86, 11, 45, 82, 14, 55, 91, 17, 54, 87, 8, 53, 83, 11, 52, 92, 14, 51, 88, 17, 50, 84, 8, 49, 93, 11, 48, 89, 14, 47, 85, 17, 46, 94, 8, 45, 90, 11, 55, 86, 14, 54, 82, 17, 53, 91, 8, 52, 87, 11, 51, 83, 14, 50, 92, 17, 49, 88, 8, 48, 84, 11, 47, 93, 14, 46, 89, 17, 45, 85, 8, 55, 94, 11, 54, 90, 14, 53, 86, 17, 52, 82, 8, 51, 91, 11, 50, 87, 14, 49, 83, 17, 48, 92, 8, 47, 88, 11, 46, 84, 14, 45, 93, 17, 55, 89, 8, 54, 85, 11, 53, 94, 14, 52, 90, 17, 51, 86, 8, 50, 82, 11, 49, 91, 14, 48, 87, 17, 47, 83, 8, 46, 92, 11, 45, 88, 14, 55, 84, 17, 54, 93, 8, 53, 89, 11, 52, 85, 14, 51, 94, 17, 50, 90, 8, 49, 86, 11, 48, 82, 14, 47, 91, 17, 46, 87, 8, 45, 83, 11, 55, 92, 14, 54, 88, 17, 53, 84, 8, 52, 93, 11, 51, 89, 14, 50, 85, 17, 49, 94, 8, 48, 90, 11, 47, 86, 14, 46, 82, 17, 45, 91, 8, 55, 87, 11, 54, 83, 14, 53, 92, 17, 52, 88, 8, 51, 84, 11, 50, 93, 14, 49, 89, 17, 48, 85, 8, 47, 94, 11, 46, 90, 14, 45, 86, 17, 55, 82, 8, 54, 91, 11, 53, 87, 14, 52, 83, 17, 51, 92, 8, 50, 88, 11, 49, 84, 14, 48, 93, 17, 47, 89, 8, 46, 85, 11, 45, 94, 14, 55, 90, 17, 54, 86, 8, 53, 82, 11, 52, 91, 14, 51, 87];
contentValue = [22, 39, 56, 73, 90, 16, 33, 50, 67, 84, 10, 27, 44, 61, 78, 95, 21, 38, 55, 72, 89, 15, 32, 49, 66, 83, 9, 26, 43, 60, 77, 94, 20, 37, 54, 71, 88, 14, 31, 48, 65, 82, 8, 25, 42, 59, 76, 93, 19, 36, 53, 70, 87, 13, 30, 47, 64, 81, 7, 24, 41, 58, 75, 92, 18, 35, 52, 69, 86, 12, 29, 46, 63, 80, 6, 23, 40, 57, 74, 91, 17, 34, 51, 68, 85, 11, 28, 45, 62, 79, 5, 22, 39, 56, 73, 90, 16, 33, 50, 67];
min_zero_per_agent = 4;
min_assign_per_agent = 1;

