A = 200;
C = 100;
Iend = 100;

stubbornness = [24, 17, 10, 29, 22, 15, 8, 27, 20, 13, 6, 25, 18, 11, 30, 23, 16, 9, 28, 21, 14, 7, 26, 19, 12, 5, 24, 17, 10, 29, 22, 15, 8, 27, 20, 13, 6, 25, 18, 11, 30, 23, 16, 9, 28, 21, 14, 7, 26, 19, 12, 5, 24, 17, 10, 29, 22, 15, 8, 27, 20, 13, 6, 25, 18, 11, 30, 23, 16, 9, 28, 21, 14, 7, 26, 19, 12, 5, 24, 17, 10, 29, 22, 15, 8, 27, 20, 13, 6, 25, 18, 11, 30, 23, 16, 9, 28, 21, 14, 7, 26, 19, 12, 5, 24, 17, 10, 29, 22, 15, 8, 27, 20, 13, 6, 25, 18, 11, 30, 23, 16, 9, 28, 21, 14, 7, 26, 19, 12, 5, 24, 17, 10, 29, 22, 15, 8, 27, 20, 13, 6, 25, 18, 11, 30, 23, 16, 9, 28, 21, 14, 7, 26, 19, 12, 5, 24, 17, 10, 29, 22, 15, 8, 27, 20, 13, 6, 25, 18, 11, 30, 23, 16, 9, 28, 21, 14, 7, 26, 19, 12, 5, 24, 17, 10, 29, 22, 15, 8, 27, 20, 13, 6, 25, 18, 11, 30, 23, 16, 9];
initialOpinion = [16, 11, 6, 17, 12, 7, 18, 13, 8, 19, 14, 9, 20, 15, 10, 5, 16, 11, 6, 17, 12, 7, 18, 13, 8, 19, 14, 9, 20, 15, 10, 5, 16, 11, 6, 17, 12, 7, 18, 13, 8, 19, 14, 9, 20, 15, 10, 5, 16, 11, 6, 17, 12, 7, 18, 13, 8, 19, 14, 9, 20, 15, 10, 5, 16, 11, 6, 17, 12, 7, 18, 13, 8, 19, 14, 9, 20, 15, 10, 5, 16, 11, 6, 17, 12, 7, 18, 13, 8, 19, 14, 9, 20, 15, 10, 5, 16, 11, 6, 17, 81, 94, 91, 88, 85, 82, 95, 92, 89, 86, 83, 80, 93, 90, 87, 84, 81, 94, 91, 88, 85, 82, 95, 92, 89, 86, 83, 80, 93, 90, 87, 84, 81, 94, 91, 88, 85, 82, 95, 92, 89, 86, 83, 80, 93, 90, 87, 84, 81, 94, 91, 88, 85, 82, 95, 92, 89, 86, 83, 80, 93, 90, 87, 84, 81, 94, 91, 88, 85, 82, 95, 92, 89, 86, 83, 80, 93, 90, 87, 84, 81, 94, 91, 88, 85, 82, 95, 92, 89, 86, 83, 80, 93, 90, 87, 84, 81, 94, 91, 88];
contentValue = [0, 1, 2, 3, 4, 5, 6, 7, 8, 9, 10, 11, 12, 13, 14, 15, 16, 17, 18, 19, 20, 21, 22, 23, 24, 25, 26, 27, 28, 29, 30, 31, 32, 33, 34, 35, 36, 37, 38, 39, 40, 41, 42, 43, 44, 45, 46, 47, 48, 49, 51, 52, 53, 54, 55, 56, 57, 58, 59, 60, 61, 62, 63, 64, 65, 66, 67, 68, 69, 70, 71, 72, 73, 74, 75, 76, 77, 78, 79, 80, 81, 82, 83, 84, 85, 86, 87, 88, 89, 90, 91, 92, 93, 94, 95, 96, 97, 98, 99, 100];

