A = 100;
C = 100;
Iend = 500;

stubbornness = [57, 23, 60, 26, 63, 29, 66, 32, 69, 35, 72, 38, 75, 41, 78, 44, 81, 47, 84, 50, 87, 53, 90, 56, 22, 59, 25, 62, 28, 65, 31, 68, 34, 71, 37, 74, 40, 77, 43, 80, 46, 83, 49, 86, 52, 89, 55, 21, 58, 24, 61, 27, 64, 30, 67, 33, 70, 36, 73, 39, 76, 42, 79, 45, 82, 48, 85, 51, 88, 54, 20, 57, 23, 60, 26, 63, 29, 66, 32, 69, 35, 72, 38, 75, 41, 78, 44, 81, 47, 84, 50, 87, 53, 90, 56, 22, 59, 25, 62, 28];
initialOpinion = [52, 88, 11, 51, 84, 14, 50, 93, 17, 49, 89, 8, 48, 85, 11, 47, 94, 14, 46, 90, 17, 45, 86, 8, 55, 82, 11, 54, 91, 14, 53, 87, 17, 52, 83, 8, 51, 92, 11, 50, 88, 14, 49, 84, 17, 48, 93, 8, 47, 89, 11, 46, 85, 14, 45, 94, 17, 55, 90, 8, 54, 86, 11, 53, 82, 14, 52, 91, 17, 51, 87, 8, 50, 83, 11, 49, 92, 14, 48, 88, 17, 47, 84, 8, 46, 93, 11, 45, 89, 14, 55, 85, 17, 54, 94, 8, 53, 90, 11, 52];
contentValue = [9, 94, 6, 87, 3, 80, 0, 94, 18, 50, 15, 80, 12, 94, 9, 87, 6, 80, 3, 50, 0, 87, 18, 80, 15, 94, 12, 87, 9, 50, 6, 94, 3, 87, 0, 80, 18, 94, 15, 50, 12, 80, 9, 94, 6, 87, 3, 80, 0, 50, 18, 87, 15, 80, 12, 94, 9, 87, 6, 50, 3, 94, 0, 87, 18, 80, 15, 94, 12, 50, 9, 80, 6, 94, 3, 87, 0, 80, 18, 50, 15, 87, 12, 80, 9, 94, 6, 87, 3, 50, 0, 94, 18, 87, 15, 80, 12, 94, 9, 50];

