A = 20;
C = 50;
Iend = 8;

% 10 Agentes de "Izquierda" (0-20) y 10 de "Derecha" (80-100)
initialOpinion = [5, 8, 10, 12, 15, 18, 20, 10, 5, 12, 
                  80, 85, 88, 90, 92, 95, 98, 85, 82, 90];

% Terquedad variada: algunos son moderados (40-60) y otros radicales (90+)
stubbornness = [95, 90, 85, 50, 45, 98, 92, 40, 88, 60,
                95, 90, 85, 50, 45, 98, 92, 40, 88, 60];

% Pool de 50 contenidos cubriendo todo el espectro (0, 2, 4, ..., 98, 100)
contentValue = [i * 2 | i in 0..49];