% ================================================================
% Archivo generado para pruebas pesadas de MiniZinc
% Modelo sugerido: simple_content_assignment_epsilon_consensus_directed.mzn
% Reto: target central con agentes muy tercos y tres grupos iniciales.
% Hipotesis: la solucion, si aparece, deberia usar bastantes contenidos por agente porque cada paso mueve poco.
% Peso: 39,000 decisiones y dinamica de opinion lenta.
% ================================================================

A = 300;
C = 100;
Iend = 130;
epsilon = 8;
target = 50;

stubbornness = [93, 87, 98, 92, 86, 97, 91, 85, 96, 90, 84, 95, 89, 83, 94, 88, 82, 93, 87, 98, 92, 86, 97, 91, 85, 96, 90, 84, 95, 89, 83, 94, 88, 82, 93, 87, 98, 92, 86, 97, 91, 85, 96, 90, 84, 95, 89, 83, 94, 88, 82, 93, 87, 98, 92, 86, 97, 91, 85, 96, 90, 84, 95, 89, 83, 94, 88, 82, 93, 87, 98, 92, 86, 97, 91, 85, 96, 90, 84, 95, 89, 83, 94, 88, 82, 93, 87, 98, 92, 86, 97, 91, 85, 96, 90, 84, 95, 89, 83, 94, 88, 82, 93, 87, 98, 92, 86, 97, 91, 85, 96, 90, 84, 95, 89, 83, 94, 88, 82, 93, 87, 98, 92, 86, 97, 91, 85, 96, 90, 84, 95, 89, 83, 94, 88, 82, 93, 87, 98, 92, 86, 97, 91, 85, 96, 90, 84, 95, 89, 83, 94, 88, 82, 93, 87, 98, 92, 86, 97, 91, 85, 96, 90, 84, 95, 89, 83, 94, 88, 82, 93, 87, 98, 92, 86, 97, 91, 85, 96, 90, 84, 95, 89, 83, 94, 88, 82, 93, 87, 98, 92, 86, 97, 91, 85, 96, 90, 84, 95, 89, 83, 94, 88, 82, 93, 87, 98, 92, 86, 97, 91, 85, 96, 90, 84, 95, 89, 83, 94, 88, 82, 93, 87, 98, 92, 86, 97, 91, 85, 96, 90, 84, 95, 89, 83, 94, 88, 82, 93, 87, 98, 92, 86, 97, 91, 85, 96, 90, 84, 95, 89, 83, 94, 88, 82, 93, 87, 98, 92, 86, 97, 91, 85, 96, 90, 84, 95, 89, 83, 94, 88, 82, 93, 87, 98, 92, 86, 97, 91, 85, 96, 90, 84, 95, 89, 83, 94, 88, 82, 93, 87, 98, 92, 86, 97, 91, 85, 96, 90, 84];
initialOpinion = [13, 16, 19, 22, 10, 13, 16, 19, 22, 10, 13, 16, 19, 22, 10, 13, 16, 19, 22, 10, 13, 16, 19, 22, 10, 13, 16, 19, 22, 10, 13, 16, 19, 22, 10, 13, 16, 19, 22, 10, 13, 16, 19, 22, 10, 13, 16, 19, 22, 10, 13, 16, 19, 22, 10, 13, 16, 19, 22, 10, 13, 16, 19, 22, 10, 13, 16, 19, 22, 10, 13, 16, 19, 22, 10, 13, 16, 19, 22, 10, 13, 16, 19, 22, 10, 13, 16, 19, 22, 10, 13, 16, 19, 22, 10, 13, 16, 19, 22, 10, 53, 43, 48, 53, 43, 48, 53, 43, 48, 53, 43, 48, 53, 43, 48, 53, 43, 48, 53, 43, 48, 53, 43, 48, 53, 43, 48, 53, 43, 48, 53, 43, 48, 53, 43, 48, 53, 43, 48, 53, 43, 48, 53, 43, 48, 53, 43, 48, 53, 43, 48, 53, 43, 48, 53, 43, 48, 53, 43, 48, 53, 43, 48, 53, 43, 48, 53, 43, 48, 53, 43, 48, 53, 43, 48, 53, 43, 48, 53, 43, 48, 53, 43, 48, 53, 43, 48, 53, 43, 48, 53, 43, 48, 53, 43, 48, 53, 43, 48, 53, 89, 81, 88, 80, 87, 79, 86, 78, 85, 77, 84, 91, 83, 90, 82, 89, 81, 88, 80, 87, 79, 86, 78, 85, 77, 84, 91, 83, 90, 82, 89, 81, 88, 80, 87, 79, 86, 78, 85, 77, 84, 91, 83, 90, 82, 89, 81, 88, 80, 87, 79, 86, 78, 85, 77, 84, 91, 83, 90, 82, 89, 81, 88, 80, 87, 79, 86, 78, 85, 77, 84, 91, 83, 90, 82, 89, 81, 88, 80, 87, 79, 86, 78, 85, 77, 84, 91, 83, 90, 82, 89, 81, 88, 80, 87, 79, 86, 78, 85, 77];
contentValue = [0, 1, 2, 3, 4, 5, 6, 7, 8, 9, 10, 11, 12, 13, 14, 15, 16, 17, 18, 19, 20, 21, 22, 23, 24, 25, 26, 27, 28, 29, 30, 31, 32, 33, 34, 35, 36, 37, 38, 39, 40, 41, 42, 43, 44, 45, 46, 47, 48, 49, 51, 52, 53, 54, 55, 56, 57, 58, 59, 60, 61, 62, 63, 64, 65, 66, 67, 68, 69, 70, 71, 72, 73, 74, 75, 76, 77, 78, 79, 80, 81, 82, 83, 84, 85, 86, 87, 88, 89, 90, 91, 92, 93, 94, 95, 96, 97, 98, 99, 100];
min_zero_per_agent = 4;
min_assign_per_agent = 1;

