% ================================================================
% Archivo generado para pruebas pesadas de MiniZinc
% Modelo sugerido: simple_content_assignment_consensus_free_reducing_conntent.mzn
% Reto: agentes muy tercos hacen que reducir polarizacion requiera muchas asignaciones.
% Hipotesis: el objetivo lexicografico deberia aceptar muchas asignaciones si logra mejorar un punto de polarizacion.
% Peso: 24,000 decisiones con opinion poco sensible al contenido.
% ================================================================

A = 200;
C = 100;
Iend = 120;

stubbornness = [97, 95, 93, 91, 89, 87, 85, 83, 81, 79, 98, 96, 94, 92, 90, 88, 86, 84, 82, 80, 78, 97, 95, 93, 91, 89, 87, 85, 83, 81, 79, 98, 96, 94, 92, 90, 88, 86, 84, 82, 80, 78, 97, 95, 93, 91, 89, 87, 85, 83, 81, 79, 98, 96, 94, 92, 90, 88, 86, 84, 82, 80, 78, 97, 95, 93, 91, 89, 87, 85, 83, 81, 79, 98, 96, 94, 92, 90, 88, 86, 84, 82, 80, 78, 97, 95, 93, 91, 89, 87, 85, 83, 81, 79, 98, 96, 94, 92, 90, 88, 86, 84, 82, 80, 78, 97, 95, 93, 91, 89, 87, 85, 83, 81, 79, 98, 96, 94, 92, 90, 88, 86, 84, 82, 80, 78, 97, 95, 93, 91, 89, 87, 85, 83, 81, 79, 98, 96, 94, 92, 90, 88, 86, 84, 82, 80, 78, 97, 95, 93, 91, 89, 87, 85, 83, 81, 79, 98, 96, 94, 92, 90, 88, 86, 84, 82, 80, 78, 97, 95, 93, 91, 89, 87, 85, 83, 81, 79, 98, 96, 94, 92, 90, 88, 86, 84, 82, 80, 78, 97, 95, 93, 91, 89, 87, 85, 83, 81, 79, 98];
initialOpinion = [80, 14, 90, 20, 80, 26, 90, 12, 80, 18, 90, 24, 80, 10, 90, 16, 80, 22, 90, 8, 80, 14, 90, 20, 80, 26, 90, 12, 80, 18, 90, 24, 80, 10, 90, 16, 80, 22, 90, 8, 80, 14, 90, 20, 80, 26, 90, 12, 80, 18, 90, 24, 80, 10, 90, 16, 80, 22, 90, 8, 80, 14, 90, 20, 80, 26, 90, 12, 80, 18, 90, 24, 80, 10, 90, 16, 80, 22, 90, 8, 80, 14, 90, 20, 80, 26, 90, 12, 80, 18, 90, 24, 80, 10, 90, 16, 80, 22, 90, 8, 80, 14, 90, 20, 80, 26, 90, 12, 80, 18, 90, 24, 80, 10, 90, 16, 80, 22, 90, 8, 80, 14, 90, 20, 80, 26, 90, 12, 80, 18, 90, 24, 80, 10, 90, 16, 80, 22, 90, 8, 80, 14, 90, 20, 80, 26, 90, 12, 80, 18, 90, 24, 80, 10, 90, 16, 80, 22, 90, 8, 80, 14, 90, 20, 80, 26, 90, 12, 80, 18, 90, 24, 80, 10, 90, 16, 80, 22, 90, 8, 80, 14, 90, 20, 80, 26, 90, 12, 80, 18, 90, 24, 80, 10, 90, 16, 80, 22, 90, 8];
contentValue = [0, 1, 2, 3, 4, 5, 6, 7, 8, 9, 10, 11, 12, 13, 14, 15, 16, 17, 18, 19, 20, 21, 22, 23, 24, 25, 26, 27, 28, 29, 30, 31, 32, 33, 34, 35, 36, 37, 38, 39, 40, 41, 42, 43, 44, 45, 46, 47, 48, 49, 51, 52, 53, 54, 55, 56, 57, 58, 59, 60, 61, 62, 63, 64, 65, 66, 67, 68, 69, 70, 71, 72, 73, 74, 75, 76, 77, 78, 79, 80, 81, 82, 83, 84, 85, 86, 87, 88, 89, 90, 91, 92, 93, 94, 95, 96, 97, 98, 99, 100];
