% ================================================================
% Archivo generado para pruebas pesadas de MiniZinc
% Modelo sugerido: simple_content_assignment_epsilon_consensus_directed.mzn
% Reto: agentes iniciales altos deben bajar a [17, 23].
% Hipotesis: el solver buscara contenidos bajos y pocas asignaciones, pero la terquedad alta puede exigir secuencias largas.
% Peso: 12,000 decisiones con target bajo y epsilon estrecho.
% ================================================================

A = 100;
C = 100;
Iend = 120;
epsilon = 3;
target = 20;

stubbornness = [73, 50, 73, 50, 73, 50, 73, 50, 73, 50, 73, 50, 73, 50, 73, 50, 73, 50, 73, 50, 73, 50, 73, 50, 73, 50, 73, 50, 73, 50, 73, 50, 73, 50, 73, 50, 73, 50, 73, 50, 73, 50, 73, 50, 73, 50, 73, 50, 73, 50, 73, 50, 73, 50, 73, 50, 73, 50, 73, 50, 73, 50, 73, 50, 73, 50, 73, 50, 73, 50, 73, 50, 73, 50, 73, 50, 73, 50, 73, 50, 73, 50, 73, 50, 73, 50, 73, 50, 73, 50, 73, 50, 73, 50, 73, 50, 73, 50, 73, 50];
initialOpinion = [77, 84, 91, 70, 77, 84, 91, 70, 77, 84, 91, 70, 77, 84, 91, 70, 77, 84, 91, 70, 77, 84, 91, 70, 77, 84, 91, 70, 77, 84, 91, 70, 77, 84, 91, 70, 77, 84, 91, 70, 77, 84, 91, 70, 77, 84, 91, 70, 77, 84, 91, 70, 77, 84, 91, 70, 77, 84, 91, 70, 77, 84, 91, 70, 77, 84, 91, 70, 77, 84, 91, 70, 77, 84, 91, 70, 77, 84, 91, 70, 77, 84, 91, 70, 77, 84, 91, 70, 77, 84, 91, 70, 77, 84, 91, 70, 77, 84, 91, 70];
contentValue = [13, 26, 39, 1, 14, 27, 40, 2, 15, 28, 41, 3, 16, 29, 42, 4, 17, 30, 43, 5, 18, 31, 44, 6, 19, 32, 45, 7, 20, 33, 46, 8, 21, 34, 47, 9, 22, 35, 48, 10, 23, 36, 49, 11, 24, 37, 50, 12, 25, 38, 0, 13, 26, 39, 1, 14, 27, 40, 2, 15, 28, 41, 3, 16, 29, 42, 4, 17, 30, 43, 5, 18, 31, 44, 6, 19, 32, 45, 7, 20, 33, 46, 8, 21, 34, 47, 9, 22, 35, 48, 10, 23, 36, 49, 11, 24, 37, 50, 12, 25];
min_zero_per_agent = 4;
min_assign_per_agent = 1;

