% ================================================================
% Archivo generado para pruebas pesadas de MiniZinc
% Modelo sugerido: simple_content_assignment_epsilon_consensus_directed.mzn
% Reto: escala grande con target central y poblacion dividida en extremos.
% Hipotesis: deberia ser factible con epsilon 10, pero costoso por 500 agentes y objetivo de eficiencia.
% Peso: 50,000 decisiones y suma global de asignaciones.
% ================================================================

A = 500;
C = 100;
Iend = 100;
epsilon = 10;
target = 50;

stubbornness = [62, 33, 70, 41, 78, 49, 86, 57, 28, 65, 36, 73, 44, 81, 52, 89, 60, 31, 68, 39, 76, 47, 84, 55, 26, 63, 34, 71, 42, 79, 50, 87, 58, 29, 66, 37, 74, 45, 82, 53, 90, 61, 32, 69, 40, 77, 48, 85, 56, 27, 64, 35, 72, 43, 80, 51, 88, 59, 30, 67, 38, 75, 46, 83, 54, 25, 62, 33, 70, 41, 78, 49, 86, 57, 28, 65, 36, 73, 44, 81, 52, 89, 60, 31, 68, 39, 76, 47, 84, 55, 26, 63, 34, 71, 42, 79, 50, 87, 58, 29, 66, 37, 74, 45, 82, 53, 90, 61, 32, 69, 40, 77, 48, 85, 56, 27, 64, 35, 72, 43, 80, 51, 88, 59, 30, 67, 38, 75, 46, 83, 54, 25, 62, 33, 70, 41, 78, 49, 86, 57, 28, 65, 36, 73, 44, 81, 52, 89, 60, 31, 68, 39, 76, 47, 84, 55, 26, 63, 34, 71, 42, 79, 50, 87, 58, 29, 66, 37, 74, 45, 82, 53, 90, 61, 32, 69, 40, 77, 48, 85, 56, 27, 64, 35, 72, 43, 80, 51, 88, 59, 30, 67, 38, 75, 46, 83, 54, 25, 62, 33, 70, 41, 78, 49, 86, 57, 28, 65, 36, 73, 44, 81, 52, 89, 60, 31, 68, 39, 76, 47, 84, 55, 26, 63, 34, 71, 42, 79, 50, 87, 58, 29, 66, 37, 74, 45, 82, 53, 90, 61, 32, 69, 40, 77, 48, 85, 56, 27, 64, 35, 72, 43, 80, 51, 88, 59, 30, 67, 38, 75, 46, 83, 54, 25, 62, 33, 70, 41, 78, 49, 86, 57, 28, 65, 36, 73, 44, 81, 52, 89, 60, 31, 68, 39, 76, 47, 84, 55, 26, 63, 34, 71, 42, 79, 50, 87, 58, 29, 66, 37, 74, 45, 82, 53, 90, 61, 32, 69, 40, 77, 48, 85, 56, 27, 64, 35, 72, 43, 80, 51, 88, 59, 30, 67, 38, 75, 46, 83, 54, 25, 62, 33, 70, 41, 78, 49, 86, 57, 28, 65, 36, 73, 44, 81, 52, 89, 60, 31, 68, 39, 76, 47, 84, 55, 26, 63, 34, 71, 42, 79, 50, 87, 58, 29, 66, 37, 74, 45, 82, 53, 90, 61, 32, 69, 40, 77, 48, 85, 56, 27, 64, 35, 72, 43, 80, 51, 88, 59, 30, 67, 38, 75, 46, 83, 54, 25, 62, 33, 70, 41, 78, 49, 86, 57, 28, 65, 36, 73, 44, 81, 52, 89, 60, 31, 68, 39, 76, 47, 84, 55, 26, 63, 34, 71, 42, 79, 50, 87, 58, 29, 66, 37, 74, 45, 82, 53, 90, 61, 32, 69, 40, 77, 48, 85, 56, 27, 64, 35, 72, 43, 80, 51, 88, 59, 30, 67, 38, 75, 46, 83, 54, 25, 62, 33, 70, 41, 78, 49, 86, 57, 28, 65, 36, 73, 44, 81, 52, 89, 60, 31, 68, 39, 76, 47, 84, 55, 26, 63, 34, 71, 42, 79, 50, 87, 58, 29, 66, 37, 74, 45];
initialOpinion = [81, 13, 95, 23, 85, 9, 75, 19, 89, 5, 79, 15, 93, 25, 83, 11, 97, 21, 87, 7, 77, 17, 91, 3, 81, 13, 95, 23, 85, 9, 75, 19, 89, 5, 79, 15, 93, 25, 83, 11, 97, 21, 87, 7, 77, 17, 91, 3, 81, 13, 95, 23, 85, 9, 75, 19, 89, 5, 79, 15, 93, 25, 83, 11, 97, 21, 87, 7, 77, 17, 91, 3, 81, 13, 95, 23, 85, 9, 75, 19, 89, 5, 79, 15, 93, 25, 83, 11, 97, 21, 87, 7, 77, 17, 91, 3, 81, 13, 95, 23, 85, 9, 75, 19, 89, 5, 79, 15, 93, 25, 83, 11, 97, 21, 87, 7, 77, 17, 91, 3, 81, 13, 95, 23, 85, 9, 75, 19, 89, 5, 79, 15, 93, 25, 83, 11, 97, 21, 87, 7, 77, 17, 91, 3, 81, 13, 95, 23, 85, 9, 75, 19, 89, 5, 79, 15, 93, 25, 83, 11, 97, 21, 87, 7, 77, 17, 91, 3, 81, 13, 95, 23, 85, 9, 75, 19, 89, 5, 79, 15, 93, 25, 83, 11, 97, 21, 87, 7, 77, 17, 91, 3, 81, 13, 95, 23, 85, 9, 75, 19, 89, 5, 79, 15, 93, 25, 83, 11, 97, 21, 87, 7, 77, 17, 91, 3, 81, 13, 95, 23, 85, 9, 75, 19, 89, 5, 79, 15, 93, 25, 83, 11, 97, 21, 87, 7, 77, 17, 91, 3, 81, 13, 95, 23, 85, 9, 75, 19, 89, 5, 79, 15, 93, 25, 83, 11, 97, 21, 87, 7, 77, 17, 91, 3, 81, 13, 95, 23, 85, 9, 75, 19, 89, 5, 79, 15, 93, 25, 83, 11, 97, 21, 87, 7, 77, 17, 91, 3, 81, 13, 95, 23, 85, 9, 75, 19, 89, 5, 79, 15, 93, 25, 83, 11, 97, 21, 87, 7, 77, 17, 91, 3, 81, 13, 95, 23, 85, 9, 75, 19, 89, 5, 79, 15, 93, 25, 83, 11, 97, 21, 87, 7, 77, 17, 91, 3, 81, 13, 95, 23, 85, 9, 75, 19, 89, 5, 79, 15, 93, 25, 83, 11, 97, 21, 87, 7, 77, 17, 91, 3, 81, 13, 95, 23, 85, 9, 75, 19, 89, 5, 79, 15, 93, 25, 83, 11, 97, 21, 87, 7, 77, 17, 91, 3, 81, 13, 95, 23, 85, 9, 75, 19, 89, 5, 79, 15, 93, 25, 83, 11, 97, 21, 87, 7, 77, 17, 91, 3, 81, 13, 95, 23, 85, 9, 75, 19, 89, 5, 79, 15, 93, 25, 83, 11, 97, 21, 87, 7, 77, 17, 91, 3, 81, 13, 95, 23, 85, 9, 75, 19, 89, 5, 79, 15, 93, 25, 83, 11, 97, 21, 87, 7, 77, 17, 91, 3, 81, 13, 95, 23, 85, 9, 75, 19, 89, 5, 79, 15, 93, 25, 83, 11, 97, 21, 87, 7, 77, 17, 91, 3, 81, 13, 95, 23, 85, 9, 75, 19, 89, 5, 79, 15, 93, 25, 83, 11, 97, 21, 87, 7];
contentValue = [0, 1, 2, 3, 4, 5, 6, 7, 8, 9, 10, 11, 12, 13, 14, 15, 16, 17, 18, 19, 20, 21, 22, 23, 24, 25, 26, 27, 28, 29, 30, 31, 32, 33, 34, 35, 36, 37, 38, 39, 40, 41, 42, 43, 44, 45, 46, 47, 48, 49, 51, 52, 53, 54, 55, 56, 57, 58, 59, 60, 61, 62, 63, 64, 65, 66, 67, 68, 69, 70, 71, 72, 73, 74, 75, 76, 77, 78, 79, 80, 81, 82, 83, 84, 85, 86, 87, 88, 89, 90, 91, 92, 93, 94, 95, 96, 97, 98, 99, 100];
