% ================================================================
% Archivo generado para pruebas pesadas de MiniZinc
% Modelo sugerido: simple_content_assignment_consensus_free_reducing_conntent.mzn
% Reto: baseline grande pero con agentes faciles de mover.
% Hipotesis: deberia resolver mejor que los casos tercos y mostrar cuanto pesa la terquedad.
% Peso: 20,000 decisiones, util para comparar contra high_stubborn.
% ================================================================

A = 200;
C = 100;
Iend = 100;

stubbornness = [12, 19, 26, 7, 14, 21, 28, 9, 16, 23, 30, 11, 18, 25, 6, 13, 20, 27, 8, 15, 22, 29, 10, 17, 24, 5, 12, 19, 26, 7, 14, 21, 28, 9, 16, 23, 30, 11, 18, 25, 6, 13, 20, 27, 8, 15, 22, 29, 10, 17, 24, 5, 12, 19, 26, 7, 14, 21, 28, 9, 16, 23, 30, 11, 18, 25, 6, 13, 20, 27, 8, 15, 22, 29, 10, 17, 24, 5, 12, 19, 26, 7, 14, 21, 28, 9, 16, 23, 30, 11, 18, 25, 6, 13, 20, 27, 8, 15, 22, 29, 10, 17, 24, 5, 12, 19, 26, 7, 14, 21, 28, 9, 16, 23, 30, 11, 18, 25, 6, 13, 20, 27, 8, 15, 22, 29, 10, 17, 24, 5, 12, 19, 26, 7, 14, 21, 28, 9, 16, 23, 30, 11, 18, 25, 6, 13, 20, 27, 8, 15, 22, 29, 10, 17, 24, 5, 12, 19, 26, 7, 14, 21, 28, 9, 16, 23, 30, 11, 18, 25, 6, 13, 20, 27, 8, 15, 22, 29, 10, 17, 24, 5, 12, 19, 26, 7, 14, 21, 28, 9, 16, 23, 30, 11, 18, 25, 6, 13, 20, 27];
initialOpinion = [15, 20, 25, 10, 15, 20, 25, 10, 15, 20, 25, 10, 15, 20, 25, 10, 15, 20, 25, 10, 15, 20, 25, 10, 15, 20, 25, 10, 15, 20, 25, 10, 15, 20, 25, 10, 15, 20, 25, 10, 15, 20, 25, 10, 15, 20, 25, 10, 15, 20, 25, 10, 15, 20, 25, 10, 15, 20, 25, 10, 15, 20, 25, 10, 15, 20, 25, 10, 15, 20, 25, 10, 15, 20, 25, 10, 15, 20, 25, 10, 15, 20, 25, 10, 15, 20, 25, 10, 15, 20, 25, 10, 15, 20, 25, 10, 15, 20, 25, 10, 77, 84, 71, 78, 85, 72, 79, 86, 73, 80, 87, 74, 81, 88, 75, 82, 89, 76, 83, 70, 77, 84, 71, 78, 85, 72, 79, 86, 73, 80, 87, 74, 81, 88, 75, 82, 89, 76, 83, 70, 77, 84, 71, 78, 85, 72, 79, 86, 73, 80, 87, 74, 81, 88, 75, 82, 89, 76, 83, 70, 77, 84, 71, 78, 85, 72, 79, 86, 73, 80, 87, 74, 81, 88, 75, 82, 89, 76, 83, 70, 77, 84, 71, 78, 85, 72, 79, 86, 73, 80, 87, 74, 81, 88, 75, 82, 89, 76, 83, 70];
contentValue = [0, 1, 2, 3, 4, 5, 6, 7, 8, 9, 10, 11, 12, 13, 14, 15, 16, 17, 18, 19, 20, 21, 22, 23, 24, 25, 26, 27, 28, 29, 30, 31, 32, 33, 34, 35, 36, 37, 38, 39, 40, 41, 42, 43, 44, 45, 46, 47, 48, 49, 51, 52, 53, 54, 55, 56, 57, 58, 59, 60, 61, 62, 63, 64, 65, 66, 67, 68, 69, 70, 71, 72, 73, 74, 75, 76, 77, 78, 79, 80, 81, 82, 83, 84, 85, 86, 87, 88, 89, 90, 91, 92, 93, 94, 95, 96, 97, 98, 99, 100];
