% ================================================================
% Archivo generado para pruebas pesadas de MiniZinc
% Modelo sugerido: simple_content_assignment_consensus_free_reducing_conntent.mzn
% Reto: optimizacion lexicografica; primero baja polarizacion y luego reduce asignaciones.
% Hipotesis: deberia sacrificar ahorro de contenido si con eso reduce max_diff final.
% Peso: 10,000 decisiones y objetivo compuesto max_diff*(A*Iend+1)+total_assigned.
% ================================================================

A = 100;
C = 100;
Iend = 100;

stubbornness = [38, 51, 64, 77, 90, 37, 50, 63, 76, 89, 36, 49, 62, 75, 88, 35, 48, 61, 74, 87, 34, 47, 60, 73, 86, 33, 46, 59, 72, 85, 32, 45, 58, 71, 84, 31, 44, 57, 70, 83, 30, 43, 56, 69, 82, 29, 42, 55, 68, 81, 28, 41, 54, 67, 80, 27, 40, 53, 66, 79, 26, 39, 52, 65, 78, 25, 38, 51, 64, 77, 90, 37, 50, 63, 76, 89, 36, 49, 62, 75, 88, 35, 48, 61, 74, 87, 34, 47, 60, 73, 86, 33, 46, 59, 72, 85, 32, 45, 58, 71];
initialOpinion = [11, 16, 21, 8, 13, 18, 23, 10, 15, 20, 7, 12, 17, 22, 9, 14, 19, 6, 11, 16, 21, 8, 13, 18, 23, 10, 15, 20, 7, 12, 17, 22, 9, 14, 19, 6, 11, 16, 21, 8, 13, 18, 23, 10, 15, 20, 7, 12, 17, 22, 93, 82, 89, 78, 85, 92, 81, 88, 95, 84, 91, 80, 87, 94, 83, 90, 79, 86, 93, 82, 89, 78, 85, 92, 81, 88, 95, 84, 91, 80, 87, 94, 83, 90, 79, 86, 93, 82, 89, 78, 85, 92, 81, 88, 95, 84, 91, 80, 87, 94];
contentValue = [0, 1, 2, 3, 4, 5, 6, 7, 8, 9, 10, 11, 12, 13, 14, 15, 16, 17, 18, 19, 20, 21, 22, 23, 24, 25, 26, 27, 28, 29, 30, 31, 32, 33, 34, 35, 36, 37, 38, 39, 40, 41, 42, 43, 44, 45, 46, 47, 48, 49, 51, 52, 53, 54, 55, 56, 57, 58, 59, 60, 61, 62, 63, 64, 65, 66, 67, 68, 69, 70, 71, 72, 73, 74, 75, 76, 77, 78, 79, 80, 81, 82, 83, 84, 85, 86, 87, 88, 89, 90, 91, 92, 93, 94, 95, 96, 97, 98, 99, 100];
