% ================================================================
% Archivo generado para pruebas pesadas de MiniZinc
% Modelo sugerido: simple_content_assignment_epsilon_consensus.mzn
% Reto: no hay contenido exactamente en la zona media porque se salta el valor 50.
% Hipotesis: el solver debe decidir si acerca grupos desde extremos sin poder usar un ancla central perfecta.
% Peso: 30,000 decisiones de asignacion y horizonte mas largo que el numero de contenidos.
% ================================================================

A = 200;
C = 100;
Iend = 150;
epsilon = 5;

stubbornness = [44, 63, 82, 35, 54, 73, 26, 45, 64, 83, 36, 55, 74, 27, 46, 65, 84, 37, 56, 75, 28, 47, 66, 85, 38, 57, 76, 29, 48, 67, 86, 39, 58, 77, 30, 49, 68, 87, 40, 59, 78, 31, 50, 69, 88, 41, 60, 79, 32, 51, 70, 89, 42, 61, 80, 33, 52, 71, 90, 43, 62, 81, 34, 53, 72, 25, 44, 63, 82, 35, 54, 73, 26, 45, 64, 83, 36, 55, 74, 27, 46, 65, 84, 37, 56, 75, 28, 47, 66, 85, 38, 57, 76, 29, 48, 67, 86, 39, 58, 77, 30, 49, 68, 87, 40, 59, 78, 31, 50, 69, 88, 41, 60, 79, 32, 51, 70, 89, 42, 61, 80, 33, 52, 71, 90, 43, 62, 81, 34, 53, 72, 25, 44, 63, 82, 35, 54, 73, 26, 45, 64, 83, 36, 55, 74, 27, 46, 65, 84, 37, 56, 75, 28, 47, 66, 85, 38, 57, 76, 29, 48, 67, 86, 39, 58, 77, 30, 49, 68, 87, 40, 59, 78, 31, 50, 69, 88, 41, 60, 79, 32, 51, 70, 89, 42, 61, 80, 33, 52, 71, 90, 43, 62, 81, 34, 53, 72, 25, 44, 63];
initialOpinion = [12, 78, 89, 13, 20, 82, 93, 21, 8, 86, 77, 9, 16, 90, 81, 17, 24, 94, 85, 5, 12, 78, 89, 13, 20, 82, 93, 21, 8, 86, 77, 9, 16, 90, 81, 17, 24, 94, 85, 5, 12, 78, 89, 13, 20, 82, 93, 21, 8, 86, 77, 9, 16, 90, 81, 17, 24, 94, 85, 5, 12, 78, 89, 13, 20, 82, 93, 21, 8, 86, 77, 9, 16, 90, 81, 17, 24, 94, 85, 5, 12, 78, 89, 13, 20, 82, 93, 21, 8, 86, 77, 9, 16, 90, 81, 17, 24, 94, 85, 5, 12, 78, 89, 13, 20, 82, 93, 21, 8, 86, 77, 9, 16, 90, 81, 17, 24, 94, 85, 5, 12, 78, 89, 13, 20, 82, 93, 21, 8, 86, 77, 9, 16, 90, 81, 17, 24, 94, 85, 5, 12, 78, 89, 13, 20, 82, 93, 21, 8, 86, 77, 9, 16, 90, 81, 17, 24, 94, 85, 5, 12, 78, 89, 13, 20, 82, 93, 21, 8, 86, 77, 9, 16, 90, 81, 17, 24, 94, 85, 5, 12, 78, 89, 13, 20, 82, 93, 21, 8, 86, 77, 9, 16, 90, 81, 17, 24, 94, 85, 5];
contentValue = [0, 1, 2, 3, 4, 5, 6, 7, 8, 9, 10, 11, 12, 13, 14, 15, 16, 17, 18, 19, 20, 21, 22, 23, 24, 25, 26, 27, 28, 29, 30, 31, 32, 33, 34, 35, 36, 37, 38, 39, 40, 41, 42, 43, 44, 45, 46, 47, 48, 49, 51, 52, 53, 54, 55, 56, 57, 58, 59, 60, 61, 62, 63, 64, 65, 66, 67, 68, 69, 70, 71, 72, 73, 74, 75, 76, 77, 78, 79, 80, 81, 82, 83, 84, 85, 86, 87, 88, 89, 90, 91, 92, 93, 94, 95, 96, 97, 98, 99, 100];
min_zero_per_agent = 7;
min_assign_per_agent = 1;

