% ================================================================
% Archivo generado para pruebas pesadas de MiniZinc
% Modelo sugerido: simple_content_assignment_consensus_free_reducing_conntent.mzn
% Reto: 500 agentes con tres bloques; max/min por turno y alldifferent_except_0 se vuelven pesados.
% Hipotesis: el bloque medio podria servir como puente, pero los extremos dictan la polarizacion final.
% Peso: 50,000 decisiones y 500 restricciones globales de no repeticion.
% ================================================================

A = 500;
C = 100;
Iend = 100;

stubbornness = [49, 78, 36, 65, 23, 52, 81, 39, 68, 26, 55, 84, 42, 71, 29, 58, 87, 45, 74, 32, 61, 90, 48, 77, 35, 64, 22, 51, 80, 38, 67, 25, 54, 83, 41, 70, 28, 57, 86, 44, 73, 31, 60, 89, 47, 76, 34, 63, 21, 50, 79, 37, 66, 24, 53, 82, 40, 69, 27, 56, 85, 43, 72, 30, 59, 88, 46, 75, 33, 62, 20, 49, 78, 36, 65, 23, 52, 81, 39, 68, 26, 55, 84, 42, 71, 29, 58, 87, 45, 74, 32, 61, 90, 48, 77, 35, 64, 22, 51, 80, 38, 67, 25, 54, 83, 41, 70, 28, 57, 86, 44, 73, 31, 60, 89, 47, 76, 34, 63, 21, 50, 79, 37, 66, 24, 53, 82, 40, 69, 27, 56, 85, 43, 72, 30, 59, 88, 46, 75, 33, 62, 20, 49, 78, 36, 65, 23, 52, 81, 39, 68, 26, 55, 84, 42, 71, 29, 58, 87, 45, 74, 32, 61, 90, 48, 77, 35, 64, 22, 51, 80, 38, 67, 25, 54, 83, 41, 70, 28, 57, 86, 44, 73, 31, 60, 89, 47, 76, 34, 63, 21, 50, 79, 37, 66, 24, 53, 82, 40, 69, 27, 56, 85, 43, 72, 30, 59, 88, 46, 75, 33, 62, 20, 49, 78, 36, 65, 23, 52, 81, 39, 68, 26, 55, 84, 42, 71, 29, 58, 87, 45, 74, 32, 61, 90, 48, 77, 35, 64, 22, 51, 80, 38, 67, 25, 54, 83, 41, 70, 28, 57, 86, 44, 73, 31, 60, 89, 47, 76, 34, 63, 21, 50, 79, 37, 66, 24, 53, 82, 40, 69, 27, 56, 85, 43, 72, 30, 59, 88, 46, 75, 33, 62, 20, 49, 78, 36, 65, 23, 52, 81, 39, 68, 26, 55, 84, 42, 71, 29, 58, 87, 45, 74, 32, 61, 90, 48, 77, 35, 64, 22, 51, 80, 38, 67, 25, 54, 83, 41, 70, 28, 57, 86, 44, 73, 31, 60, 89, 47, 76, 34, 63, 21, 50, 79, 37, 66, 24, 53, 82, 40, 69, 27, 56, 85, 43, 72, 30, 59, 88, 46, 75, 33, 62, 20, 49, 78, 36, 65, 23, 52, 81, 39, 68, 26, 55, 84, 42, 71, 29, 58, 87, 45, 74, 32, 61, 90, 48, 77, 35, 64, 22, 51, 80, 38, 67, 25, 54, 83, 41, 70, 28, 57, 86, 44, 73, 31, 60, 89, 47, 76, 34, 63, 21, 50, 79, 37, 66, 24, 53, 82, 40, 69, 27, 56, 85, 43, 72, 30, 59, 88, 46, 75, 33, 62, 20, 49, 78, 36, 65, 23, 52, 81, 39, 68, 26, 55, 84, 42, 71, 29, 58, 87, 45, 74, 32, 61, 90, 48, 77, 35, 64, 22, 51, 80, 38, 67, 25, 54, 83, 41, 70, 28, 57, 86, 44, 73, 31, 60, 89, 47, 76, 34, 63, 21, 50, 79, 37, 66, 24, 53, 82, 40, 69, 27, 56, 85, 43, 72, 30, 59, 88, 46, 75, 33, 62, 20, 49, 78, 36];
initialOpinion = [15, 18, 21, 24, 27, 12, 15, 18, 21, 24, 27, 12, 15, 18, 21, 24, 27, 12, 15, 18, 21, 24, 27, 12, 15, 18, 21, 24, 27, 12, 15, 18, 21, 24, 27, 12, 15, 18, 21, 24, 27, 12, 15, 18, 21, 24, 27, 12, 15, 18, 21, 24, 27, 12, 15, 18, 21, 24, 27, 12, 15, 18, 21, 24, 27, 12, 15, 18, 21, 24, 27, 12, 15, 18, 21, 24, 27, 12, 15, 18, 21, 24, 27, 12, 15, 18, 21, 24, 27, 12, 15, 18, 21, 24, 27, 12, 15, 18, 21, 24, 27, 12, 15, 18, 21, 24, 27, 12, 15, 18, 21, 24, 27, 12, 15, 18, 21, 24, 27, 12, 15, 18, 21, 24, 27, 12, 15, 18, 21, 24, 27, 12, 15, 18, 21, 24, 27, 12, 15, 18, 21, 24, 27, 12, 15, 18, 21, 24, 27, 12, 15, 18, 21, 24, 27, 12, 15, 18, 21, 24, 27, 12, 15, 18, 21, 24, 27, 12, 15, 18, 51, 56, 43, 48, 53, 58, 45, 50, 55, 42, 47, 52, 57, 44, 49, 54, 59, 46, 51, 56, 43, 48, 53, 58, 45, 50, 55, 42, 47, 52, 57, 44, 49, 54, 59, 46, 51, 56, 43, 48, 53, 58, 45, 50, 55, 42, 47, 52, 57, 44, 49, 54, 59, 46, 51, 56, 43, 48, 53, 58, 45, 50, 55, 42, 47, 52, 57, 44, 49, 54, 59, 46, 51, 56, 43, 48, 53, 58, 45, 50, 55, 42, 47, 52, 57, 44, 49, 54, 59, 46, 51, 56, 43, 48, 53, 58, 45, 50, 55, 42, 47, 52, 57, 44, 49, 54, 59, 46, 51, 56, 43, 48, 53, 58, 45, 50, 55, 42, 47, 52, 57, 44, 49, 54, 59, 46, 51, 56, 43, 48, 53, 58, 45, 50, 55, 42, 47, 52, 57, 44, 49, 54, 59, 46, 51, 56, 43, 48, 53, 58, 45, 50, 55, 42, 47, 52, 57, 44, 49, 54, 59, 46, 51, 56, 43, 48, 53, 58, 45, 50, 87, 76, 83, 90, 79, 86, 93, 82, 89, 78, 85, 92, 81, 88, 77, 84, 91, 80, 87, 76, 83, 90, 79, 86, 93, 82, 89, 78, 85, 92, 81, 88, 77, 84, 91, 80, 87, 76, 83, 90, 79, 86, 93, 82, 89, 78, 85, 92, 81, 88, 77, 84, 91, 80, 87, 76, 83, 90, 79, 86, 93, 82, 89, 78, 85, 92, 81, 88, 77, 84, 91, 80, 87, 76, 83, 90, 79, 86, 93, 82, 89, 78, 85, 92, 81, 88, 77, 84, 91, 80, 87, 76, 83, 90, 79, 86, 93, 82, 89, 78, 85, 92, 81, 88, 77, 84, 91, 80, 87, 76, 83, 90, 79, 86, 93, 82, 89, 78, 85, 92, 81, 88, 77, 84, 91, 80, 87, 76, 83, 90, 79, 86, 93, 82, 89, 78, 85, 92, 81, 88, 77, 84, 91, 80, 87, 76, 83, 90, 79, 86, 93, 82, 89, 78, 85, 92, 81, 88, 77, 84];
contentValue = [0, 1, 2, 3, 4, 5, 6, 7, 8, 9, 10, 11, 12, 13, 14, 15, 16, 17, 18, 19, 20, 21, 22, 23, 24, 25, 26, 27, 28, 29, 30, 31, 32, 33, 34, 35, 36, 37, 38, 39, 40, 41, 42, 43, 44, 45, 46, 47, 48, 49, 51, 52, 53, 54, 55, 56, 57, 58, 59, 60, 61, 62, 63, 64, 65, 66, 67, 68, 69, 70, 71, 72, 73, 74, 75, 76, 77, 78, 79, 80, 81, 82, 83, 84, 85, 86, 87, 88, 89, 90, 91, 92, 93, 94, 95, 96, 97, 98, 99, 100];
