% ================================================================
% Archivo generado para pruebas pesadas de MiniZinc
% Modelo sugerido: simple_content_assignment_consensus_free_reducing_conntent.mzn
% Reto: contenidos concentrados cerca del centro; util para bajar extremos pero puede atascar grupos medios.
% Hipotesis: deberia reducir bastante la polarizacion, aunque no necesariamente con pocas asignaciones.
% Peso: 45,000 decisiones y muchos contenidos con valores parecidos.
% ================================================================

A = 300;
C = 100;
Iend = 150;

stubbornness = [32, 49, 66, 83, 24, 41, 58, 75, 16, 33, 50, 67, 84, 25, 42, 59, 76, 17, 34, 51, 68, 85, 26, 43, 60, 77, 18, 35, 52, 69, 86, 27, 44, 61, 78, 19, 36, 53, 70, 87, 28, 45, 62, 79, 20, 37, 54, 71, 88, 29, 46, 63, 80, 21, 38, 55, 72, 89, 30, 47, 64, 81, 22, 39, 56, 73, 90, 31, 48, 65, 82, 23, 40, 57, 74, 15, 32, 49, 66, 83, 24, 41, 58, 75, 16, 33, 50, 67, 84, 25, 42, 59, 76, 17, 34, 51, 68, 85, 26, 43, 60, 77, 18, 35, 52, 69, 86, 27, 44, 61, 78, 19, 36, 53, 70, 87, 28, 45, 62, 79, 20, 37, 54, 71, 88, 29, 46, 63, 80, 21, 38, 55, 72, 89, 30, 47, 64, 81, 22, 39, 56, 73, 90, 31, 48, 65, 82, 23, 40, 57, 74, 15, 32, 49, 66, 83, 24, 41, 58, 75, 16, 33, 50, 67, 84, 25, 42, 59, 76, 17, 34, 51, 68, 85, 26, 43, 60, 77, 18, 35, 52, 69, 86, 27, 44, 61, 78, 19, 36, 53, 70, 87, 28, 45, 62, 79, 20, 37, 54, 71, 88, 29, 46, 63, 80, 21, 38, 55, 72, 89, 30, 47, 64, 81, 22, 39, 56, 73, 90, 31, 48, 65, 82, 23, 40, 57, 74, 15, 32, 49, 66, 83, 24, 41, 58, 75, 16, 33, 50, 67, 84, 25, 42, 59, 76, 17, 34, 51, 68, 85, 26, 43, 60, 77, 18, 35, 52, 69, 86, 27, 44, 61, 78, 19, 36, 53, 70, 87, 28, 45, 62, 79, 20, 37, 54, 71, 88, 29, 46, 63, 80, 21, 38, 55, 72, 89, 30, 47, 64, 81, 22, 39, 56, 73, 90, 31, 48, 65, 82, 23];
initialOpinion = [51, 81, 6, 44, 80, 7, 57, 79, 8, 50, 78, 9, 43, 77, 10, 56, 76, 11, 49, 75, 12, 42, 94, 13, 55, 93, 14, 48, 92, 15, 41, 91, 16, 54, 90, 17, 47, 89, 18, 40, 88, 19, 53, 87, 20, 46, 86, 21, 59, 85, 22, 52, 84, 23, 45, 83, 24, 58, 82, 5, 51, 81, 6, 44, 80, 7, 57, 79, 8, 50, 78, 9, 43, 77, 10, 56, 76, 11, 49, 75, 12, 42, 94, 13, 55, 93, 14, 48, 92, 15, 41, 91, 16, 54, 90, 17, 47, 89, 18, 40, 88, 19, 53, 87, 20, 46, 86, 21, 59, 85, 22, 52, 84, 23, 45, 83, 24, 58, 82, 5, 51, 81, 6, 44, 80, 7, 57, 79, 8, 50, 78, 9, 43, 77, 10, 56, 76, 11, 49, 75, 12, 42, 94, 13, 55, 93, 14, 48, 92, 15, 41, 91, 16, 54, 90, 17, 47, 89, 18, 40, 88, 19, 53, 87, 20, 46, 86, 21, 59, 85, 22, 52, 84, 23, 45, 83, 24, 58, 82, 5, 51, 81, 6, 44, 80, 7, 57, 79, 8, 50, 78, 9, 43, 77, 10, 56, 76, 11, 49, 75, 12, 42, 94, 13, 55, 93, 14, 48, 92, 15, 41, 91, 16, 54, 90, 17, 47, 89, 18, 40, 88, 19, 53, 87, 20, 46, 86, 21, 59, 85, 22, 52, 84, 23, 45, 83, 24, 58, 82, 5, 51, 81, 6, 44, 80, 7, 57, 79, 8, 50, 78, 9, 43, 77, 10, 56, 76, 11, 49, 75, 12, 42, 94, 13, 55, 93, 14, 48, 92, 15, 41, 91, 16, 54, 90, 17, 47, 89, 18, 40, 88, 19, 53, 87, 20, 46, 86, 21, 59, 85, 22, 52, 84, 23, 45, 83, 24, 58, 82, 5];
contentValue = [42, 49, 56, 63, 39, 46, 53, 60, 36, 43, 50, 57, 64, 40, 47, 54, 61, 37, 44, 51, 58, 65, 41, 48, 55, 62, 38, 45, 52, 59, 35, 42, 49, 56, 63, 39, 46, 53, 60, 36, 43, 50, 57, 64, 40, 47, 54, 61, 37, 44, 51, 58, 65, 41, 48, 55, 62, 38, 45, 52, 59, 35, 42, 49, 56, 63, 39, 46, 53, 60, 36, 43, 50, 57, 64, 40, 47, 54, 61, 37, 44, 51, 58, 65, 41, 48, 55, 62, 38, 45, 52, 59, 35, 42, 49, 56, 63, 39, 46, 53];
