% ================================================================
% Archivo generado para pruebas pesadas de MiniZinc
% Modelo sugerido: simple_content_assignment_epsilon_consensus.mzn
% Reto: 500 agentes en tres clusters iniciales; presiona memoria, propagacion y max/min por turno.
% Hipotesis: deberia tender a un consenso intermedio si encuentra suficientes contenidos puente.
% Peso: 50,000 decisiones de asignacion mas restricciones de no repeticion por agente.
% ================================================================

A = 500;
C = 100;
Iend = 100;
epsilon = 10;

stubbornness = [43, 66, 89, 41, 64, 87, 39, 62, 85, 37, 60, 83, 35, 58, 81, 33, 56, 79, 31, 54, 77, 29, 52, 75, 27, 50, 73, 25, 48, 71, 23, 46, 69, 21, 44, 67, 90, 42, 65, 88, 40, 63, 86, 38, 61, 84, 36, 59, 82, 34, 57, 80, 32, 55, 78, 30, 53, 76, 28, 51, 74, 26, 49, 72, 24, 47, 70, 22, 45, 68, 20, 43, 66, 89, 41, 64, 87, 39, 62, 85, 37, 60, 83, 35, 58, 81, 33, 56, 79, 31, 54, 77, 29, 52, 75, 27, 50, 73, 25, 48, 71, 23, 46, 69, 21, 44, 67, 90, 42, 65, 88, 40, 63, 86, 38, 61, 84, 36, 59, 82, 34, 57, 80, 32, 55, 78, 30, 53, 76, 28, 51, 74, 26, 49, 72, 24, 47, 70, 22, 45, 68, 20, 43, 66, 89, 41, 64, 87, 39, 62, 85, 37, 60, 83, 35, 58, 81, 33, 56, 79, 31, 54, 77, 29, 52, 75, 27, 50, 73, 25, 48, 71, 23, 46, 69, 21, 44, 67, 90, 42, 65, 88, 40, 63, 86, 38, 61, 84, 36, 59, 82, 34, 57, 80, 32, 55, 78, 30, 53, 76, 28, 51, 74, 26, 49, 72, 24, 47, 70, 22, 45, 68, 20, 43, 66, 89, 41, 64, 87, 39, 62, 85, 37, 60, 83, 35, 58, 81, 33, 56, 79, 31, 54, 77, 29, 52, 75, 27, 50, 73, 25, 48, 71, 23, 46, 69, 21, 44, 67, 90, 42, 65, 88, 40, 63, 86, 38, 61, 84, 36, 59, 82, 34, 57, 80, 32, 55, 78, 30, 53, 76, 28, 51, 74, 26, 49, 72, 24, 47, 70, 22, 45, 68, 20, 43, 66, 89, 41, 64, 87, 39, 62, 85, 37, 60, 83, 35, 58, 81, 33, 56, 79, 31, 54, 77, 29, 52, 75, 27, 50, 73, 25, 48, 71, 23, 46, 69, 21, 44, 67, 90, 42, 65, 88, 40, 63, 86, 38, 61, 84, 36, 59, 82, 34, 57, 80, 32, 55, 78, 30, 53, 76, 28, 51, 74, 26, 49, 72, 24, 47, 70, 22, 45, 68, 20, 43, 66, 89, 41, 64, 87, 39, 62, 85, 37, 60, 83, 35, 58, 81, 33, 56, 79, 31, 54, 77, 29, 52, 75, 27, 50, 73, 25, 48, 71, 23, 46, 69, 21, 44, 67, 90, 42, 65, 88, 40, 63, 86, 38, 61, 84, 36, 59, 82, 34, 57, 80, 32, 55, 78, 30, 53, 76, 28, 51, 74, 26, 49, 72, 24, 47, 70, 22, 45, 68, 20, 43, 66, 89, 41, 64, 87, 39, 62, 85, 37, 60, 83, 35, 58, 81, 33, 56, 79, 31, 54, 77, 29, 52, 75, 27, 50, 73, 25, 48, 71, 23, 46, 69, 21, 44, 67, 90, 42, 65, 88, 40, 63, 86, 38, 61, 84, 36, 59, 82, 34, 57, 80, 32, 55, 78, 30, 53, 76, 28, 51, 74, 26, 49, 72, 24, 47, 70, 22, 45, 68, 20, 43, 66, 89];
initialOpinion = [13, 18, 23, 10, 15, 20, 25, 12, 17, 22, 9, 14, 19, 24, 11, 16, 21, 8, 13, 18, 23, 10, 15, 20, 25, 12, 17, 22, 9, 14, 19, 24, 11, 16, 21, 8, 13, 18, 23, 10, 15, 20, 25, 12, 17, 22, 9, 14, 19, 24, 11, 16, 21, 8, 13, 18, 23, 10, 15, 20, 25, 12, 17, 22, 9, 14, 19, 24, 11, 16, 21, 8, 13, 18, 23, 10, 15, 20, 25, 12, 17, 22, 9, 14, 19, 24, 11, 16, 21, 8, 13, 18, 23, 10, 15, 20, 25, 12, 17, 22, 9, 14, 19, 24, 11, 16, 21, 8, 13, 18, 23, 10, 15, 20, 25, 12, 17, 22, 9, 14, 19, 24, 11, 16, 21, 8, 13, 18, 23, 10, 15, 20, 25, 12, 17, 22, 9, 14, 19, 24, 11, 16, 21, 8, 13, 18, 23, 10, 15, 20, 25, 12, 17, 22, 9, 14, 19, 24, 11, 16, 21, 8, 13, 18, 23, 48, 55, 45, 52, 42, 49, 56, 46, 53, 43, 50, 57, 47, 54, 44, 51, 58, 48, 55, 45, 52, 42, 49, 56, 46, 53, 43, 50, 57, 47, 54, 44, 51, 58, 48, 55, 45, 52, 42, 49, 56, 46, 53, 43, 50, 57, 47, 54, 44, 51, 58, 48, 55, 45, 52, 42, 49, 56, 46, 53, 43, 50, 57, 47, 54, 44, 51, 58, 48, 55, 45, 52, 42, 49, 56, 46, 53, 43, 50, 57, 47, 54, 44, 51, 58, 48, 55, 45, 52, 42, 49, 56, 46, 53, 43, 50, 57, 47, 54, 44, 51, 58, 48, 55, 45, 52, 42, 49, 56, 46, 53, 43, 50, 57, 47, 54, 44, 51, 58, 48, 55, 45, 52, 42, 49, 56, 46, 53, 43, 50, 57, 47, 54, 44, 51, 58, 48, 55, 45, 52, 42, 49, 56, 46, 53, 43, 50, 57, 47, 54, 44, 51, 58, 48, 55, 45, 52, 42, 49, 56, 46, 53, 43, 50, 57, 83, 94, 87, 80, 91, 84, 95, 88, 81, 92, 85, 78, 89, 82, 93, 86, 79, 90, 83, 94, 87, 80, 91, 84, 95, 88, 81, 92, 85, 78, 89, 82, 93, 86, 79, 90, 83, 94, 87, 80, 91, 84, 95, 88, 81, 92, 85, 78, 89, 82, 93, 86, 79, 90, 83, 94, 87, 80, 91, 84, 95, 88, 81, 92, 85, 78, 89, 82, 93, 86, 79, 90, 83, 94, 87, 80, 91, 84, 95, 88, 81, 92, 85, 78, 89, 82, 93, 86, 79, 90, 83, 94, 87, 80, 91, 84, 95, 88, 81, 92, 85, 78, 89, 82, 93, 86, 79, 90, 83, 94, 87, 80, 91, 84, 95, 88, 81, 92, 85, 78, 89, 82, 93, 86, 79, 90, 83, 94, 87, 80, 91, 84, 95, 88, 81, 92, 85, 78, 89, 82, 93, 86, 79, 90, 83, 94, 87, 80, 91, 84, 95, 88, 81, 92, 85, 78, 89, 82, 93, 86, 79, 90, 83, 94, 87, 80, 91, 84, 95, 88];
contentValue = [0, 1, 2, 3, 4, 5, 6, 7, 8, 9, 10, 11, 12, 13, 14, 15, 16, 17, 18, 19, 20, 21, 22, 23, 24, 25, 26, 27, 28, 29, 30, 31, 32, 33, 34, 35, 36, 37, 38, 39, 40, 41, 42, 43, 44, 45, 46, 47, 48, 49, 51, 52, 53, 54, 55, 56, 57, 58, 59, 60, 61, 62, 63, 64, 65, 66, 67, 68, 69, 70, 71, 72, 73, 74, 75, 76, 77, 78, 79, 80, 81, 82, 83, 84, 85, 86, 87, 88, 89, 90, 91, 92, 93, 94, 95, 96, 97, 98, 99, 100];
min_zero_per_agent = 7;
min_assign_per_agent = 1;

