% ================================================================
% Archivo generado para pruebas pesadas de MiniZinc
% Modelo sugerido: simple_content_assignment_epsilon_consensus.mzn
% Reto: muchos intervalos con solo 100 contenidos; se fuerza una cola larga de ceros por alldifferent_except_0.
% Hipotesis: la dificultad viene de decidir en que turnos conviene actuar sin romper monotonocidad.
% Peso: 50,000 decisiones de asignacion aunque cada agente solo pueda usar hasta 100 contenidos reales.
% ================================================================

A = 100;
C = 100;
Iend = 500;
epsilon = 3;

stubbornness = [64, 37, 66, 39, 68, 41, 70, 43, 72, 45, 74, 47, 76, 49, 78, 51, 80, 53, 82, 55, 84, 57, 86, 59, 88, 61, 90, 63, 36, 65, 38, 67, 40, 69, 42, 71, 44, 73, 46, 75, 48, 77, 50, 79, 52, 81, 54, 83, 56, 85, 58, 87, 60, 89, 62, 35, 64, 37, 66, 39, 68, 41, 70, 43, 72, 45, 74, 47, 76, 49, 78, 51, 80, 53, 82, 55, 84, 57, 86, 59, 88, 61, 90, 63, 36, 65, 38, 67, 40, 69, 42, 71, 44, 73, 46, 75, 48, 77, 50, 79];
initialOpinion = [19, 26, 33, 18, 25, 32, 17, 24, 31, 16, 23, 30, 15, 22, 29, 14, 21, 28, 13, 20, 27, 12, 19, 26, 33, 18, 25, 32, 17, 24, 31, 16, 23, 30, 15, 22, 29, 14, 21, 28, 13, 20, 27, 12, 19, 26, 33, 18, 25, 32, 70, 79, 88, 73, 82, 67, 76, 85, 70, 79, 88, 73, 82, 67, 76, 85, 70, 79, 88, 73, 82, 67, 76, 85, 70, 79, 88, 73, 82, 67, 76, 85, 70, 79, 88, 73, 82, 67, 76, 85, 70, 79, 88, 73, 82, 67, 76, 85, 70, 79];
contentValue = [0, 1, 2, 3, 4, 5, 6, 7, 8, 9, 10, 11, 12, 13, 14, 15, 16, 17, 18, 19, 20, 21, 22, 23, 24, 25, 26, 27, 28, 29, 30, 31, 32, 33, 34, 35, 36, 37, 38, 39, 40, 41, 42, 43, 44, 45, 46, 47, 48, 49, 51, 52, 53, 54, 55, 56, 57, 58, 59, 60, 61, 62, 63, 64, 65, 66, 67, 68, 69, 70, 71, 72, 73, 74, 75, 76, 77, 78, 79, 80, 81, 82, 83, 84, 85, 86, 87, 88, 89, 90, 91, 92, 93, 94, 95, 96, 97, 98, 99, 100];
