% ================================================================
% Archivo generado para pruebas pesadas de MiniZinc
% Modelo sugerido: simple_content_assignment_epsilon_consensus.mzn
% Reto: agentes muy tercos; cada contenido mueve poco la opinion.
% Hipotesis: si hay solucion, necesitara muchas asignaciones tempranas y contenidos muy bien elegidos.
% Peso: 36,000 decisiones con cambios pequenos por paso.
% ================================================================

A = 300;
C = 100;
Iend = 120;
epsilon = 8;

stubbornness = [93, 87, 81, 94, 88, 82, 95, 89, 83, 96, 90, 84, 97, 91, 85, 98, 92, 86, 80, 93, 87, 81, 94, 88, 82, 95, 89, 83, 96, 90, 84, 97, 91, 85, 98, 92, 86, 80, 93, 87, 81, 94, 88, 82, 95, 89, 83, 96, 90, 84, 97, 91, 85, 98, 92, 86, 80, 93, 87, 81, 94, 88, 82, 95, 89, 83, 96, 90, 84, 97, 91, 85, 98, 92, 86, 80, 93, 87, 81, 94, 88, 82, 95, 89, 83, 96, 90, 84, 97, 91, 85, 98, 92, 86, 80, 93, 87, 81, 94, 88, 82, 95, 89, 83, 96, 90, 84, 97, 91, 85, 98, 92, 86, 80, 93, 87, 81, 94, 88, 82, 95, 89, 83, 96, 90, 84, 97, 91, 85, 98, 92, 86, 80, 93, 87, 81, 94, 88, 82, 95, 89, 83, 96, 90, 84, 97, 91, 85, 98, 92, 86, 80, 93, 87, 81, 94, 88, 82, 95, 89, 83, 96, 90, 84, 97, 91, 85, 98, 92, 86, 80, 93, 87, 81, 94, 88, 82, 95, 89, 83, 96, 90, 84, 97, 91, 85, 98, 92, 86, 80, 93, 87, 81, 94, 88, 82, 95, 89, 83, 96, 90, 84, 97, 91, 85, 98, 92, 86, 80, 93, 87, 81, 94, 88, 82, 95, 89, 83, 96, 90, 84, 97, 91, 85, 98, 92, 86, 80, 93, 87, 81, 94, 88, 82, 95, 89, 83, 96, 90, 84, 97, 91, 85, 98, 92, 86, 80, 93, 87, 81, 94, 88, 82, 95, 89, 83, 96, 90, 84, 97, 91, 85, 98, 92, 86, 80, 93, 87, 81, 94, 88, 82, 95, 89, 83, 96, 90, 84, 97, 91, 85, 98, 92, 86, 80, 93, 87, 81, 94, 88, 82, 95, 89, 83, 96, 90, 84, 97, 91, 85];
initialOpinion = [52, 88, 13, 51, 91, 16, 50, 82, 19, 49, 85, 10, 48, 88, 13, 47, 91, 16, 46, 82, 19, 45, 85, 10, 55, 88, 13, 54, 91, 16, 53, 82, 19, 52, 85, 10, 51, 88, 13, 50, 91, 16, 49, 82, 19, 48, 85, 10, 47, 88, 13, 46, 91, 16, 45, 82, 19, 55, 85, 10, 54, 88, 13, 53, 91, 16, 52, 82, 19, 51, 85, 10, 50, 88, 13, 49, 91, 16, 48, 82, 19, 47, 85, 10, 46, 88, 13, 45, 91, 16, 55, 82, 19, 54, 85, 10, 53, 88, 13, 52, 91, 16, 51, 82, 19, 50, 85, 10, 49, 88, 13, 48, 91, 16, 47, 82, 19, 46, 85, 10, 45, 88, 13, 55, 91, 16, 54, 82, 19, 53, 85, 10, 52, 88, 13, 51, 91, 16, 50, 82, 19, 49, 85, 10, 48, 88, 13, 47, 91, 16, 46, 82, 19, 45, 85, 10, 55, 88, 13, 54, 91, 16, 53, 82, 19, 52, 85, 10, 51, 88, 13, 50, 91, 16, 49, 82, 19, 48, 85, 10, 47, 88, 13, 46, 91, 16, 45, 82, 19, 55, 85, 10, 54, 88, 13, 53, 91, 16, 52, 82, 19, 51, 85, 10, 50, 88, 13, 49, 91, 16, 48, 82, 19, 47, 85, 10, 46, 88, 13, 45, 91, 16, 55, 82, 19, 54, 85, 10, 53, 88, 13, 52, 91, 16, 51, 82, 19, 50, 85, 10, 49, 88, 13, 48, 91, 16, 47, 82, 19, 46, 85, 10, 45, 88, 13, 55, 91, 16, 54, 82, 19, 53, 85, 10, 52, 88, 13, 51, 91, 16, 50, 82, 19, 49, 85, 10, 48, 88, 13, 47, 91, 16, 46, 82, 19, 45, 85, 10, 55, 88, 13, 54, 91, 16, 53, 82, 19, 52, 85, 10];
contentValue = [0, 1, 2, 3, 4, 5, 6, 7, 8, 9, 10, 11, 12, 13, 14, 15, 16, 17, 18, 19, 20, 21, 22, 23, 24, 25, 26, 27, 28, 29, 30, 31, 32, 33, 34, 35, 36, 37, 38, 39, 40, 41, 42, 43, 44, 45, 46, 47, 48, 49, 51, 52, 53, 54, 55, 56, 57, 58, 59, 60, 61, 62, 63, 64, 65, 66, 67, 68, 69, 70, 71, 72, 73, 74, 75, 76, 77, 78, 79, 80, 81, 82, 83, 84, 85, 86, 87, 88, 89, 90, 91, 92, 93, 94, 95, 96, 97, 98, 99, 100];
