% ================================================================
% Archivo generado para pruebas pesadas de MiniZinc
% Modelo sugerido: simple_content_assignment_epsilon_consensus_directed.mzn
% Reto: la mayoria parte baja y debe subir a [75, 85].
% Hipotesis: deberia usar muchos contenidos altos; agentes tercos podrian dominar el costo.
% Peso: 30,000 decisiones con target alejado del estado inicial.
% ================================================================

A = 200;
C = 100;
Iend = 150;
epsilon = 5;
target = 80;

stubbornness = [54, 73, 92, 50, 69, 88, 46, 65, 84, 42, 61, 80, 38, 57, 76, 95, 53, 72, 91, 49, 68, 87, 45, 64, 83, 41, 60, 79, 37, 56, 75, 94, 52, 71, 90, 48, 67, 86, 44, 63, 82, 40, 59, 78, 36, 55, 74, 93, 51, 70, 89, 47, 66, 85, 43, 62, 81, 39, 58, 77, 35, 54, 73, 92, 50, 69, 88, 46, 65, 84, 42, 61, 80, 38, 57, 76, 95, 53, 72, 91, 49, 68, 87, 45, 64, 83, 41, 60, 79, 37, 56, 75, 94, 52, 71, 90, 48, 67, 86, 44, 63, 82, 40, 59, 78, 36, 55, 74, 93, 51, 70, 89, 47, 66, 85, 43, 62, 81, 39, 58, 77, 35, 54, 73, 92, 50, 69, 88, 46, 65, 84, 42, 61, 80, 38, 57, 76, 95, 53, 72, 91, 49, 68, 87, 45, 64, 83, 41, 60, 79, 37, 56, 75, 94, 52, 71, 90, 48, 67, 86, 44, 63, 82, 40, 59, 78, 36, 55, 74, 93, 51, 70, 89, 47, 66, 85, 43, 62, 81, 39, 58, 77, 35, 54, 73, 92, 50, 69, 88, 46, 65, 84, 42, 61, 80, 38, 57, 76, 95, 53];
initialOpinion = [16, 27, 38, 13, 24, 35, 10, 21, 32, 7, 18, 29, 40, 15, 26, 37, 12, 23, 34, 9, 20, 31, 6, 17, 28, 39, 14, 25, 36, 11, 22, 33, 8, 19, 30, 5, 16, 27, 38, 13, 24, 35, 10, 21, 32, 7, 18, 29, 40, 15, 26, 37, 12, 23, 34, 9, 20, 31, 6, 17, 28, 39, 14, 25, 36, 11, 22, 33, 8, 19, 30, 5, 16, 27, 38, 13, 24, 35, 10, 21, 32, 7, 18, 29, 40, 15, 26, 37, 12, 23, 34, 9, 20, 31, 6, 17, 28, 39, 14, 25, 36, 11, 22, 33, 8, 19, 30, 5, 16, 27, 38, 13, 24, 35, 10, 21, 32, 7, 18, 29, 40, 15, 26, 37, 12, 23, 34, 9, 20, 31, 6, 17, 28, 39, 14, 25, 36, 11, 22, 33, 8, 19, 30, 5, 16, 27, 38, 13, 24, 35, 10, 21, 32, 7, 18, 29, 40, 15, 26, 37, 12, 23, 34, 9, 20, 31, 6, 17, 28, 39, 14, 25, 36, 11, 22, 33, 8, 19, 30, 5, 16, 27, 38, 13, 24, 35, 10, 21, 32, 7, 18, 29, 40, 15, 26, 37, 12, 23, 34, 9];
contentValue = [61, 72, 83, 94, 54, 65, 76, 87, 98, 58, 69, 80, 91, 51, 62, 73, 84, 95, 55, 66, 77, 88, 99, 59, 70, 81, 92, 52, 63, 74, 85, 96, 56, 67, 78, 89, 100, 60, 71, 82, 93, 53, 64, 75, 86, 97, 57, 68, 79, 90, 50, 61, 72, 83, 94, 54, 65, 76, 87, 98, 58, 69, 80, 91, 51, 62, 73, 84, 95, 55, 66, 77, 88, 99, 59, 70, 81, 92, 52, 63, 74, 85, 96, 56, 67, 78, 89, 100, 60, 71, 82, 93, 53, 64, 75, 86, 97, 57, 68, 79];
