% ================================================================
% Archivo generado para pruebas pesadas de MiniZinc
% Modelo sugerido: simple_content_assignment_consensus_free_reducing_conntent.mzn
% Reto: 500 intervalos y solo 100 contenidos; gran simetria por muchos ceros posibles.
% Hipotesis: deberia encontrar que muchos turnos sobran, pero probarlo puede ser costoso.
% Peso: 50,000 decisiones con cola larga de no asignaciones.
% ================================================================

A = 100;
C = 100;
Iend = 500;

stubbornness = [61, 31, 62, 32, 63, 33, 64, 34, 65, 35, 66, 36, 67, 37, 68, 38, 69, 39, 70, 40, 71, 41, 72, 42, 73, 43, 74, 44, 75, 45, 76, 46, 77, 47, 78, 48, 79, 49, 80, 50, 81, 51, 82, 52, 83, 53, 84, 54, 85, 55, 86, 56, 87, 57, 88, 58, 89, 59, 90, 60, 30, 61, 31, 62, 32, 63, 33, 64, 34, 65, 35, 66, 36, 67, 37, 68, 38, 69, 39, 70, 40, 71, 41, 72, 42, 73, 43, 74, 44, 75, 45, 76, 46, 77, 47, 78, 48, 79, 49, 80];
initialOpinion = [20, 25, 30, 15, 20, 25, 30, 15, 20, 25, 30, 15, 20, 25, 30, 15, 20, 25, 30, 15, 20, 25, 30, 15, 20, 25, 30, 15, 20, 25, 30, 15, 20, 25, 30, 15, 20, 25, 30, 15, 20, 25, 30, 15, 20, 25, 30, 15, 20, 25, 85, 72, 79, 86, 73, 80, 87, 74, 81, 68, 75, 82, 69, 76, 83, 70, 77, 84, 71, 78, 85, 72, 79, 86, 73, 80, 87, 74, 81, 68, 75, 82, 69, 76, 83, 70, 77, 84, 71, 78, 85, 72, 79, 86, 73, 80, 87, 74, 81, 68];
contentValue = [0, 1, 2, 3, 4, 5, 6, 7, 8, 9, 10, 11, 12, 13, 14, 15, 16, 17, 18, 19, 20, 21, 22, 23, 24, 25, 26, 27, 28, 29, 30, 31, 32, 33, 34, 35, 36, 37, 38, 39, 40, 41, 42, 43, 44, 45, 46, 47, 48, 49, 51, 52, 53, 54, 55, 56, 57, 58, 59, 60, 61, 62, 63, 64, 65, 66, 67, 68, 69, 70, 71, 72, 73, 74, 75, 76, 77, 78, 79, 80, 81, 82, 83, 84, 85, 86, 87, 88, 89, 90, 91, 92, 93, 94, 95, 96, 97, 98, 99, 100];
