% ================================================================
% Archivo generado para pruebas pesadas de MiniZinc
% Modelo sugerido: simple_content_assignment_epsilon_consensus_directed.mzn
% Reto: horizonte muy largo y target medio-alto [61, 69].
% Hipotesis: muchas posiciones seran cero; el reto es elegir pocos momentos utiles para minimizar asignaciones.
% Peso: 60,000 decisiones con simetria temporal potencialmente grande.
% ================================================================

A = 200;
C = 100;
Iend = 300;
epsilon = 4;
target = 65;

stubbornness = [47, 64, 81, 37, 54, 71, 88, 44, 61, 78, 34, 51, 68, 85, 41, 58, 75, 31, 48, 65, 82, 38, 55, 72, 89, 45, 62, 79, 35, 52, 69, 86, 42, 59, 76, 32, 49, 66, 83, 39, 56, 73, 90, 46, 63, 80, 36, 53, 70, 87, 43, 60, 77, 33, 50, 67, 84, 40, 57, 74, 30, 47, 64, 81, 37, 54, 71, 88, 44, 61, 78, 34, 51, 68, 85, 41, 58, 75, 31, 48, 65, 82, 38, 55, 72, 89, 45, 62, 79, 35, 52, 69, 86, 42, 59, 76, 32, 49, 66, 83, 39, 56, 73, 90, 46, 63, 80, 36, 53, 70, 87, 43, 60, 77, 33, 50, 67, 84, 40, 57, 74, 30, 47, 64, 81, 37, 54, 71, 88, 44, 61, 78, 34, 51, 68, 85, 41, 58, 75, 31, 48, 65, 82, 38, 55, 72, 89, 45, 62, 79, 35, 52, 69, 86, 42, 59, 76, 32, 49, 66, 83, 39, 56, 73, 90, 46, 63, 80, 36, 53, 70, 87, 43, 60, 77, 33, 50, 67, 84, 40, 57, 74, 30, 47, 64, 81, 37, 54, 71, 88, 44, 61, 78, 34, 51, 68, 85, 41, 58, 75];
initialOpinion = [25, 30, 35, 40, 20, 25, 30, 35, 40, 20, 25, 30, 35, 40, 20, 25, 30, 35, 40, 20, 25, 30, 35, 40, 20, 25, 30, 35, 40, 20, 25, 30, 35, 40, 20, 25, 30, 35, 40, 20, 25, 30, 35, 40, 20, 25, 30, 35, 40, 20, 25, 30, 35, 40, 20, 25, 30, 35, 40, 20, 25, 30, 35, 40, 20, 25, 30, 35, 40, 20, 25, 30, 35, 40, 20, 25, 30, 35, 40, 20, 25, 30, 35, 40, 20, 25, 30, 35, 40, 20, 25, 30, 35, 40, 20, 25, 30, 35, 40, 20, 25, 30, 35, 40, 20, 25, 30, 35, 40, 20, 25, 30, 35, 40, 20, 25, 30, 35, 40, 20, 77, 84, 71, 78, 85, 72, 79, 86, 73, 80, 87, 74, 81, 88, 75, 82, 89, 76, 83, 70, 77, 84, 71, 78, 85, 72, 79, 86, 73, 80, 87, 74, 81, 88, 75, 82, 89, 76, 83, 70, 77, 84, 71, 78, 85, 72, 79, 86, 73, 80, 87, 74, 81, 88, 75, 82, 89, 76, 83, 70, 77, 84, 71, 78, 85, 72, 79, 86, 73, 80, 87, 74, 81, 88, 75, 82, 89, 76, 83, 70];
contentValue = [0, 1, 2, 3, 4, 5, 6, 7, 8, 9, 10, 11, 12, 13, 14, 15, 16, 17, 18, 19, 20, 21, 22, 23, 24, 25, 26, 27, 28, 29, 30, 31, 32, 33, 34, 35, 36, 37, 38, 39, 40, 41, 42, 43, 44, 45, 46, 47, 48, 49, 51, 52, 53, 54, 55, 56, 57, 58, 59, 60, 61, 62, 63, 64, 65, 66, 67, 68, 69, 70, 71, 72, 73, 74, 75, 76, 77, 78, 79, 80, 81, 82, 83, 84, 85, 86, 87, 88, 89, 90, 91, 92, 93, 94, 95, 96, 97, 98, 99, 100];
