% ================================================================
% Archivo generado para pruebas pesadas de MiniZinc
% Modelo sugerido: simple_content_assignment_epsilon_consensus.mzn
% Reto: consenso exacto con dos bloques iniciales cerca de 0 y 100.
% Hipotesis: probablemente sea muy dificil o infactible con aritmetica entera y monotonocidad estricta.
% Peso: 10,000 variables de asignacion y busqueda con epsilon = 0.
% ================================================================

A = 100;
C = 100;
Iend = 100;
epsilon = 0;

stubbornness = [72, 89, 65, 82, 58, 75, 92, 68, 85, 61, 78, 95, 71, 88, 64, 81, 57, 74, 91, 67, 84, 60, 77, 94, 70, 87, 63, 80, 56, 73, 90, 66, 83, 59, 76, 93, 69, 86, 62, 79, 55, 72, 89, 65, 82, 58, 75, 92, 68, 85, 61, 78, 95, 71, 88, 64, 81, 57, 74, 91, 67, 84, 60, 77, 94, 70, 87, 63, 80, 56, 73, 90, 66, 83, 59, 76, 93, 69, 86, 62, 79, 55, 72, 89, 65, 82, 58, 75, 92, 68, 85, 61, 78, 95, 71, 88, 64, 81, 57, 74];
initialOpinion = [3, 6, 9, 12, 15, 2, 5, 8, 11, 14, 1, 4, 7, 10, 13, 0, 3, 6, 9, 12, 15, 2, 5, 8, 11, 14, 1, 4, 7, 10, 13, 0, 3, 6, 9, 12, 15, 2, 5, 8, 11, 14, 1, 4, 7, 10, 13, 0, 3, 6, 100, 89, 94, 99, 88, 93, 98, 87, 92, 97, 86, 91, 96, 85, 90, 95, 100, 89, 94, 99, 88, 93, 98, 87, 92, 97, 86, 91, 96, 85, 90, 95, 100, 89, 94, 99, 88, 93, 98, 87, 92, 97, 86, 91, 96, 85, 90, 95, 100, 89];
contentValue = [0, 1, 2, 3, 4, 5, 6, 7, 8, 9, 10, 11, 12, 13, 14, 15, 16, 17, 18, 19, 20, 21, 22, 23, 24, 25, 26, 27, 28, 29, 30, 31, 32, 33, 34, 35, 36, 37, 38, 39, 40, 41, 42, 43, 44, 45, 46, 47, 48, 49, 51, 52, 53, 54, 55, 56, 57, 58, 59, 60, 61, 62, 63, 64, 65, 66, 67, 68, 69, 70, 71, 72, 73, 74, 75, 76, 77, 78, 79, 80, 81, 82, 83, 84, 85, 86, 87, 88, 89, 90, 91, 92, 93, 94, 95, 96, 97, 98, 99, 100];
