% ================================================================
% Archivo generado para pruebas pesadas de MiniZinc
% Modelo sugerido: simple_content_assignment_epsilon_consensus_directed.mzn
% Reto: todos deben terminar en [49, 51] desde opiniones bimodales.
% Hipotesis: caso muy exigente; la division entera puede impedir ajustar fino a algunos agentes.
% Peso: 10,000 decisiones y objetivo de minimizar contenidos usados.
% ================================================================

A = 100;
C = 100;
Iend = 100;
epsilon = 1;
target = 50;

stubbornness = [62, 79, 45, 62, 79, 45, 62, 79, 45, 62, 79, 45, 62, 79, 45, 62, 79, 45, 62, 79, 45, 62, 79, 45, 62, 79, 45, 62, 79, 45, 62, 79, 45, 62, 79, 45, 62, 79, 45, 62, 79, 45, 62, 79, 45, 62, 79, 45, 62, 79, 45, 62, 79, 45, 62, 79, 45, 62, 79, 45, 62, 79, 45, 62, 79, 45, 62, 79, 45, 62, 79, 45, 62, 79, 45, 62, 79, 45, 62, 79, 45, 62, 79, 45, 62, 79, 45, 62, 79, 45, 62, 79, 45, 62, 79, 45, 62, 79, 45, 62];
initialOpinion = [7, 10, 13, 16, 19, 4, 7, 10, 13, 16, 19, 4, 7, 10, 13, 16, 19, 4, 7, 10, 13, 16, 19, 4, 7, 10, 13, 16, 19, 4, 7, 10, 13, 16, 19, 4, 7, 10, 13, 16, 19, 4, 7, 10, 13, 16, 19, 4, 7, 10, 95, 84, 91, 80, 87, 94, 83, 90, 97, 86, 93, 82, 89, 96, 85, 92, 81, 88, 95, 84, 91, 80, 87, 94, 83, 90, 97, 86, 93, 82, 89, 96, 85, 92, 81, 88, 95, 84, 91, 80, 87, 94, 83, 90, 97, 86, 93, 82, 89, 96];
contentValue = [0, 1, 2, 3, 4, 5, 6, 7, 8, 9, 10, 11, 12, 13, 14, 15, 16, 17, 18, 19, 20, 21, 22, 23, 24, 25, 26, 27, 28, 29, 30, 31, 32, 33, 34, 35, 36, 37, 38, 39, 40, 41, 42, 43, 44, 45, 46, 47, 48, 49, 51, 52, 53, 54, 55, 56, 57, 58, 59, 60, 61, 62, 63, 64, 65, 66, 67, 68, 69, 70, 71, 72, 73, 74, 75, 76, 77, 78, 79, 80, 81, 82, 83, 84, 85, 86, 87, 88, 89, 90, 91, 92, 93, 94, 95, 96, 97, 98, 99, 100];
