% ================================================================
% Archivo generado para pruebas pesadas de MiniZinc
% Modelo sugerido: simple_content_assignment_epsilon_consensus.mzn
% Reto: contenidos concentrados en extremos, sin puente central real.
% Hipotesis: puede mantener o reducir polarizacion solo con secuencias cuidadosas; no deberia converger fino.
% Peso: 50,000 decisiones con dominio de contenido poco cooperativo.
% ================================================================

A = 200;
C = 100;
Iend = 250;
epsilon = 12;

stubbornness = [61, 31, 62, 32, 63, 33, 64, 34, 65, 35, 66, 36, 67, 37, 68, 38, 69, 39, 70, 40, 71, 41, 72, 42, 73, 43, 74, 44, 75, 45, 76, 46, 77, 47, 78, 48, 79, 49, 80, 50, 81, 51, 82, 52, 83, 53, 84, 54, 85, 55, 86, 56, 87, 57, 88, 58, 89, 59, 90, 60, 30, 61, 31, 62, 32, 63, 33, 64, 34, 65, 35, 66, 36, 67, 37, 68, 38, 69, 39, 70, 40, 71, 41, 72, 42, 73, 43, 74, 44, 75, 45, 76, 46, 77, 47, 78, 48, 79, 49, 80, 50, 81, 51, 82, 52, 83, 53, 84, 54, 85, 55, 86, 56, 87, 57, 88, 58, 89, 59, 90, 60, 30, 61, 31, 62, 32, 63, 33, 64, 34, 65, 35, 66, 36, 67, 37, 68, 38, 69, 39, 70, 40, 71, 41, 72, 42, 73, 43, 74, 44, 75, 45, 76, 46, 77, 47, 78, 48, 79, 49, 80, 50, 81, 51, 82, 52, 83, 53, 84, 54, 85, 55, 86, 56, 87, 57, 88, 58, 89, 59, 90, 60, 30, 61, 31, 62, 32, 63, 33, 64, 34, 65, 35, 66, 36, 67, 37, 68, 38, 69];
initialOpinion = [18, 21, 24, 27, 15, 18, 21, 24, 27, 15, 18, 21, 24, 27, 15, 18, 21, 24, 27, 15, 18, 21, 24, 27, 15, 18, 21, 24, 27, 15, 18, 21, 24, 27, 15, 18, 21, 24, 27, 15, 18, 21, 24, 27, 15, 18, 21, 24, 27, 15, 18, 21, 24, 27, 15, 18, 21, 24, 27, 15, 18, 21, 24, 27, 15, 18, 21, 24, 27, 15, 18, 21, 24, 27, 15, 18, 21, 24, 27, 15, 18, 21, 24, 27, 15, 18, 21, 24, 27, 15, 18, 21, 24, 27, 15, 18, 21, 24, 27, 15, 81, 86, 75, 80, 85, 74, 79, 84, 73, 78, 83, 72, 77, 82, 87, 76, 81, 86, 75, 80, 85, 74, 79, 84, 73, 78, 83, 72, 77, 82, 87, 76, 81, 86, 75, 80, 85, 74, 79, 84, 73, 78, 83, 72, 77, 82, 87, 76, 81, 86, 75, 80, 85, 74, 79, 84, 73, 78, 83, 72, 77, 82, 87, 76, 81, 86, 75, 80, 85, 74, 79, 84, 73, 78, 83, 72, 77, 82, 87, 76, 81, 86, 75, 80, 85, 74, 79, 84, 73, 78, 83, 72, 77, 82, 87, 76, 81, 86, 75, 80];
contentValue = [0, 1, 2, 3, 4, 5, 6, 7, 8, 9, 10, 11, 12, 13, 14, 15, 16, 17, 18, 19, 20, 0, 1, 2, 3, 4, 5, 6, 7, 8, 9, 10, 11, 12, 13, 14, 15, 16, 17, 18, 19, 20, 0, 1, 2, 3, 4, 5, 6, 7, 80, 81, 82, 83, 84, 85, 86, 87, 88, 89, 90, 91, 92, 93, 94, 95, 96, 97, 98, 99, 100, 80, 81, 82, 83, 84, 85, 86, 87, 88, 89, 90, 91, 92, 93, 94, 95, 96, 97, 98, 99, 100, 80, 81, 82, 83, 84, 85, 86, 87];
min_zero_per_agent = 7;
min_assign_per_agent = 1;

