A = 200;
C = 100;
Iend = 150;
epsilon = 15;

stubbornness = [57, 23, 60, 26, 63, 29, 66, 32, 69, 35, 72, 38, 75, 41, 78, 44, 81, 47, 84, 50, 87, 53, 90, 56, 22, 59, 25, 62, 28, 65, 31, 68, 34, 71, 37, 74, 40, 77, 43, 80, 46, 83, 49, 86, 52, 89, 55, 21, 58, 24, 61, 27, 64, 30, 67, 33, 70, 36, 73, 39, 76, 42, 79, 45, 82, 48, 85, 51, 88, 54, 20, 57, 23, 60, 26, 63, 29, 66, 32, 69, 35, 72, 38, 75, 41, 78, 44, 81, 47, 84, 50, 87, 53, 90, 56, 22, 59, 25, 62, 28, 65, 31, 68, 34, 71, 37, 74, 40, 77, 43, 80, 46, 83, 49, 86, 52, 89, 55, 21, 58, 24, 61, 27, 64, 30, 67, 33, 70, 36, 73, 39, 76, 42, 79, 45, 82, 48, 85, 51, 88, 54, 20, 57, 23, 60, 26, 63, 29, 66, 32, 69, 35, 72, 38, 75, 41, 78, 44, 81, 47, 84, 50, 87, 53, 90, 56, 22, 59, 25, 62, 28, 65, 31, 68, 34, 71, 37, 74, 40, 77, 43, 80, 46, 83, 49, 86, 52, 89, 55, 21, 58, 24, 61, 27, 64, 30, 67, 33, 70, 36];
initialOpinion = [16, 11, 6, 17, 12, 7, 18, 13, 8, 19, 14, 9, 20, 15, 10, 5, 16, 11, 6, 17, 12, 7, 18, 13, 8, 19, 14, 9, 20, 15, 10, 5, 16, 11, 6, 17, 12, 7, 18, 13, 8, 19, 14, 9, 20, 15, 10, 5, 16, 11, 6, 17, 12, 7, 18, 13, 8, 19, 14, 9, 20, 15, 10, 5, 16, 11, 6, 17, 12, 7, 18, 13, 8, 19, 14, 9, 20, 15, 10, 5, 16, 11, 6, 17, 12, 7, 18, 13, 8, 19, 14, 9, 20, 15, 10, 5, 16, 11, 6, 17, 81, 94, 91, 88, 85, 82, 95, 92, 89, 86, 83, 80, 93, 90, 87, 84, 81, 94, 91, 88, 85, 82, 95, 92, 89, 86, 83, 80, 93, 90, 87, 84, 81, 94, 91, 88, 85, 82, 95, 92, 89, 86, 83, 80, 93, 90, 87, 84, 81, 94, 91, 88, 85, 82, 95, 92, 89, 86, 83, 80, 93, 90, 87, 84, 81, 94, 91, 88, 85, 82, 95, 92, 89, 86, 83, 80, 93, 90, 87, 84, 81, 94, 91, 88, 85, 82, 95, 92, 89, 86, 83, 80, 93, 90, 87, 84, 81, 94, 91, 88];
contentValue = [3, 6, 9, 12, 15, 18, 21, 24, 27, 30, 2, 5, 8, 11, 14, 17, 20, 23, 26, 29, 1, 4, 7, 10, 13, 16, 19, 22, 25, 28, 0, 3, 6, 9, 12, 15, 18, 21, 24, 27, 30, 2, 5, 8, 11, 14, 17, 20, 23, 26, 77, 82, 87, 92, 97, 71, 76, 81, 86, 91, 96, 70, 75, 80, 85, 90, 95, 100, 74, 79, 84, 89, 94, 99, 73, 78, 83, 88, 93, 98, 72, 77, 82, 87, 92, 97, 71, 76, 81, 86, 91, 96, 70, 75, 80, 85, 90, 95, 100, 74];

