% Epsilon directed benchmark: large, target25_downshift
% Generated by tools/generate_benchmark_data.py
% Convention: C = Iend so content availability grows with the horizon.
A = 75;
C = 75;
Iend = 75;
epsilon = 10;
target = 25;

initialOpinion = [
  76, 87, 67, 78, 89, 69, 80, 91, 71, 82, 93, 73, 84, 95, 75, 86, 66, 77,
  88, 68, 79, 90, 70, 81, 92, 72, 83, 94, 74, 85, 65, 76, 87, 67, 78, 89,
  69, 80, 91, 71, 82, 93, 73, 84, 95, 75, 86, 66, 77, 88, 68, 79, 90, 70,
  81, 92, 72, 83, 94, 74, 85, 65, 76, 87, 67, 78, 89, 69, 80, 91, 71, 82,
  93, 73, 84
];
stubbornness = [
  44, 53, 62, 71, 35, 44, 53, 62, 71, 35, 44, 53, 62, 71, 35, 44, 53, 62,
  71, 35, 44, 53, 62, 71, 35, 44, 53, 62, 71, 35, 44, 53, 62, 71, 35, 44,
  53, 62, 71, 35, 44, 53, 62, 71, 35, 44, 53, 62, 71, 35, 44, 53, 62, 71,
  35, 44, 53, 62, 71, 35, 44, 53, 62, 71, 35, 44, 53, 62, 71, 35, 44, 53,
  62, 71, 35
];
contentValue = [
  0, 1, 3, 4, 5, 7, 8, 9, 11, 12, 14, 15, 16, 18, 19, 20, 22, 23,
  24, 26, 27, 28, 30, 31, 32, 34, 35, 36, 38, 39, 41, 42, 43, 45, 46, 47,
  49, 50, 51, 53, 54, 55, 57, 58, 59, 61, 62, 64, 65, 66, 68, 69, 70, 72,
  73, 74, 76, 77, 78, 80, 81, 82, 84, 85, 86, 88, 89, 91, 92, 93, 95, 96,
  97, 99, 100
];
