% Epsilon directed benchmark: medium, target25_downshift
% Generated by tools/generate_benchmark_data.py
% Convention: C = Iend so content availability grows with the horizon.
A = 30;
C = 30;
Iend = 30;
epsilon = 10;
target = 25;

initialOpinion = [
  76, 87, 67, 78, 89, 69, 80, 91, 71, 82, 93, 73, 84, 95, 75, 86, 66, 77,
  88, 68, 79, 90, 70, 81, 92, 72, 83, 94, 74, 85
];
stubbornness = [
  44, 53, 62, 71, 35, 44, 53, 62, 71, 35, 44, 53, 62, 71, 35, 44, 53, 62,
  71, 35, 44, 53, 62, 71, 35, 44, 53, 62, 71, 35
];
contentValue = [
  0, 3, 7, 10, 14, 17, 21, 24, 28, 31, 34, 38, 41, 45, 48, 52, 55, 59,
  62, 66, 69, 72, 76, 79, 83, 86, 90, 93, 97, 100
];
