% Epsilon free benchmark: large, high_stubborn
% Generated by tools/generate_benchmark_data.py
% Convention: C = Iend so content availability grows with the horizon.
A = 75;
C = 75;
Iend = 75;
epsilon = 15;

initialOpinion = [
  33, 56, 79, 21, 44, 67, 90, 32, 55, 78, 20, 43, 66, 89, 31, 54, 77, 19,
  42, 65, 88, 30, 53, 76, 18, 41, 64, 87, 29, 52, 75, 17, 40, 63, 86, 28,
  51, 74, 16, 39, 62, 85, 27, 50, 73, 15, 38, 61, 84, 26, 49, 72, 14, 37,
  60, 83, 25, 48, 71, 13, 36, 59, 82, 24, 47, 70, 12, 35, 58, 81, 23, 46,
  69, 11, 34
];
stubbornness = [
  85, 92, 81, 88, 95, 84, 91, 80, 87, 94, 83, 90, 79, 86, 93, 82, 89, 78,
  85, 92, 81, 88, 95, 84, 91, 80, 87, 94, 83, 90, 79, 86, 93, 82, 89, 78,
  85, 92, 81, 88, 95, 84, 91, 80, 87, 94, 83, 90, 79, 86, 93, 82, 89, 78,
  85, 92, 81, 88, 95, 84, 91, 80, 87, 94, 83, 90, 79, 86, 93, 82, 89, 78,
  85, 92, 81
];
contentValue = [
  0, 5, 10, 20, 35, 45, 50, 55, 65, 80, 90, 95, 100, 0, 5, 10, 20, 35,
  45, 50, 55, 65, 80, 90, 95, 100, 0, 5, 10, 20, 35, 45, 50, 55, 65, 80,
  90, 95, 100, 0, 5, 10, 20, 35, 45, 50, 55, 65, 80, 90, 95, 100, 0, 5,
  10, 20, 35, 45, 50, 55, 65, 80, 90, 95, 100, 0, 5, 10, 20, 35, 45, 50,
  55, 65, 80
];
