% Epsilon free benchmark: stress500, balanced_bimodal
% Generated by tools/generate_benchmark_data.py
% Convention: C = Iend so content availability grows with the horizon.
A = 500;
C = 100;
Iend = 100;
epsilon = 10;

initialOpinion = [
  15, 92, 14, 91, 13, 90, 12, 89, 11, 88, 10, 87, 9, 86, 8, 85, 22, 84,
  21, 83, 20, 82, 19, 81, 18, 80, 17, 79, 16, 78, 15, 92, 14, 91, 13, 90,
  12, 89, 11, 88, 10, 87, 9, 86, 8, 85, 22, 84, 21, 83, 20, 82, 19, 81,
  18, 80, 17, 79, 16, 78, 15, 92, 14, 91, 13, 90, 12, 89, 11, 88, 10, 87,
  9, 86, 8, 85, 22, 84, 21, 83, 20, 82, 19, 81, 18, 80, 17, 79, 16, 78,
  15, 92, 14, 91, 13, 90, 12, 89, 11, 88, 10, 87, 9, 86, 8, 85, 22, 84,
  21, 83, 20, 82, 19, 81, 18, 80, 17, 79, 16, 78, 15, 92, 14, 91, 13, 90,
  12, 89, 11, 88, 10, 87, 9, 86, 8, 85, 22, 84, 21, 83, 20, 82, 19, 81,
  18, 80, 17, 79, 16, 78, 15, 92, 14, 91, 13, 90, 12, 89, 11, 88, 10, 87,
  9, 86, 8, 85, 22, 84, 21, 83, 20, 82, 19, 81, 18, 80, 17, 79, 16, 78,
  15, 92, 14, 91, 13, 90, 12, 89, 11, 88, 10, 87, 9, 86, 8, 85, 22, 84,
  21, 83, 20, 82, 19, 81, 18, 80, 17, 79, 16, 78, 15, 92, 14, 91, 13, 90,
  12, 89, 11, 88, 10, 87, 9, 86, 8, 85, 22, 84, 21, 83, 20, 82, 19, 81,
  18, 80, 17, 79, 16, 78, 15, 92, 14, 91, 13, 90, 12, 89, 11, 88, 10, 87,
  9, 86, 8, 85, 22, 84, 21, 83, 20, 82, 19, 81, 18, 80, 17, 79, 16, 78,
  15, 92, 14, 91, 13, 90, 12, 89, 11, 88, 10, 87, 9, 86, 8, 85, 22, 84,
  21, 83, 20, 82, 19, 81, 18, 80, 17, 79, 16, 78, 15, 92, 14, 91, 13, 90,
  12, 89, 11, 88, 10, 87, 9, 86, 8, 85, 22, 84, 21, 83, 20, 82, 19, 81,
  18, 80, 17, 79, 16, 78, 15, 92, 14, 91, 13, 90, 12, 89, 11, 88, 10, 87,
  9, 86, 8, 85, 22, 84, 21, 83, 20, 82, 19, 81, 18, 80, 17, 79, 16, 78,
  15, 92, 14, 91, 13, 90, 12, 89, 11, 88, 10, 87, 9, 86, 8, 85, 22, 84,
  21, 83, 20, 82, 19, 81, 18, 80, 17, 79, 16, 78, 15, 92, 14, 91, 13, 90,
  12, 89, 11, 88, 10, 87, 9, 86, 8, 85, 22, 84, 21, 83, 20, 82, 19, 81,
  18, 80, 17, 79, 16, 78, 15, 92, 14, 91, 13, 90, 12, 89, 11, 88, 10, 87,
  9, 86, 8, 85, 22, 84, 21, 83, 20, 82, 19, 81, 18, 80, 17, 79, 16, 78,
  15, 92, 14, 91, 13, 90, 12, 89, 11, 88, 10, 87, 9, 86, 8, 85, 22, 84,
  21, 83, 20, 82, 19, 81, 18, 80, 17, 79, 16, 78, 15, 92, 14, 91, 13, 90,
  12, 89, 11, 88, 10, 87, 9, 86, 8, 85, 22, 84, 21, 83
];
stubbornness = [
  36, 47, 58, 69, 80, 31, 42, 53, 64, 75, 26, 37, 48, 59, 70, 81, 32, 43,
  54, 65, 76, 27, 38, 49, 60, 71, 82, 33, 44, 55, 66, 77, 28, 39, 50, 61,
  72, 83, 34, 45, 56, 67, 78, 29, 40, 51, 62, 73, 84, 35, 46, 57, 68, 79,
  30, 41, 52, 63, 74, 25, 36, 47, 58, 69, 80, 31, 42, 53, 64, 75, 26, 37,
  48, 59, 70, 81, 32, 43, 54, 65, 76, 27, 38, 49, 60, 71, 82, 33, 44, 55,
  66, 77, 28, 39, 50, 61, 72, 83, 34, 45, 56, 67, 78, 29, 40, 51, 62, 73,
  84, 35, 46, 57, 68, 79, 30, 41, 52, 63, 74, 25, 36, 47, 58, 69, 80, 31,
  42, 53, 64, 75, 26, 37, 48, 59, 70, 81, 32, 43, 54, 65, 76, 27, 38, 49,
  60, 71, 82, 33, 44, 55, 66, 77, 28, 39, 50, 61, 72, 83, 34, 45, 56, 67,
  78, 29, 40, 51, 62, 73, 84, 35, 46, 57, 68, 79, 30, 41, 52, 63, 74, 25,
  36, 47, 58, 69, 80, 31, 42, 53, 64, 75, 26, 37, 48, 59, 70, 81, 32, 43,
  54, 65, 76, 27, 38, 49, 60, 71, 82, 33, 44, 55, 66, 77, 28, 39, 50, 61,
  72, 83, 34, 45, 56, 67, 78, 29, 40, 51, 62, 73, 84, 35, 46, 57, 68, 79,
  30, 41, 52, 63, 74, 25, 36, 47, 58, 69, 80, 31, 42, 53, 64, 75, 26, 37,
  48, 59, 70, 81, 32, 43, 54, 65, 76, 27, 38, 49, 60, 71, 82, 33, 44, 55,
  66, 77, 28, 39, 50, 61, 72, 83, 34, 45, 56, 67, 78, 29, 40, 51, 62, 73,
  84, 35, 46, 57, 68, 79, 30, 41, 52, 63, 74, 25, 36, 47, 58, 69, 80, 31,
  42, 53, 64, 75, 26, 37, 48, 59, 70, 81, 32, 43, 54, 65, 76, 27, 38, 49,
  60, 71, 82, 33, 44, 55, 66, 77, 28, 39, 50, 61, 72, 83, 34, 45, 56, 67,
  78, 29, 40, 51, 62, 73, 84, 35, 46, 57, 68, 79, 30, 41, 52, 63, 74, 25,
  36, 47, 58, 69, 80, 31, 42, 53, 64, 75, 26, 37, 48, 59, 70, 81, 32, 43,
  54, 65, 76, 27, 38, 49, 60, 71, 82, 33, 44, 55, 66, 77, 28, 39, 50, 61,
  72, 83, 34, 45, 56, 67, 78, 29, 40, 51, 62, 73, 84, 35, 46, 57, 68, 79,
  30, 41, 52, 63, 74, 25, 36, 47, 58, 69, 80, 31, 42, 53, 64, 75, 26, 37,
  48, 59, 70, 81, 32, 43, 54, 65, 76, 27, 38, 49, 60, 71, 82, 33, 44, 55,
  66, 77, 28, 39, 50, 61, 72, 83, 34, 45, 56, 67, 78, 29, 40, 51, 62, 73,
  84, 35, 46, 57, 68, 79, 30, 41, 52, 63, 74, 25, 36, 47, 58, 69, 80, 31,
  42, 53, 64, 75, 26, 37, 48, 59, 70, 81, 32, 43, 54, 65
];
contentValue = [
  0, 1, 2, 3, 4, 5, 6, 7, 8, 9, 10, 11, 12, 13, 14, 15, 16, 17,
  18, 19, 20, 21, 22, 23, 24, 25, 26, 27, 28, 29, 30, 31, 32, 33, 34, 35,
  36, 37, 38, 39, 40, 41, 42, 43, 44, 45, 46, 47, 48, 49, 51, 52, 53, 54,
  55, 56, 57, 58, 59, 60, 61, 62, 63, 64, 65, 66, 67, 68, 69, 70, 71, 72,
  73, 74, 75, 76, 77, 78, 79, 80, 81, 82, 83, 84, 85, 86, 87, 88, 89, 90,
  91, 92, 93, 94, 95, 96, 97, 98, 99, 100
];
